@relation 'dataexcel-weka.filters.unsupervised.attribute.Remove-R11-12-weka.filters.unsupervised.attribute.NumericToNominal-R1,2,4,5,6,8,12-17-weka.filters.unsupervised.attribute.MergeTwoValues-Clast-F1-S3-weka.filters.supervised.instance.StratifiedRemoveFolds-S1-V-N5-F1'

@attribute 'Marital status' {1,2,3,4,5,6}
@attribute 'Application mode' {1,2,5,7,10,15,16,17,18,26,27,39,42,43,44,51,53,57}
@attribute 'Application order' numeric
@attribute Course {33,171,8014,9003,9070,9085,9119,9130,9147,9238,9254,9500,9556,9670,9773,9853,9991}
@attribute 'Daytime/evening attendance\t' {0,1}
@attribute 'Previous qualification' {1,2,3,4,5,6,9,10,12,14,15,19,38,39,40,42,43}
@attribute 'Previous qualification (grade)' numeric
@attribute Nacionality {1,2,6,11,13,14,17,21,22,24,25,26,32,41,62,100,101,103,105,108,109}
@attribute 'Mother qualification' {Basic,Secondary,Higher,Unknown}
@attribute 'Father qualification' {Secondary,Higher,Basic,Unknown}
@attribute 'Admission grade' numeric
@attribute Displaced {0,1}
@attribute 'Educational special needs' {0,1}
@attribute Debtor {0,1}
@attribute 'Tuition fees up to date' {0,1}
@attribute Gender {0,1}
@attribute 'Scholarship holder' {0,1}
@attribute 'Age at enrollment' numeric
@attribute 'Curricular units 1st sem (credited)' numeric
@attribute 'Curricular units 1st sem (enrolled)' numeric
@attribute 'Curricular units 1st sem (evaluations)' numeric
@attribute 'Curricular units 1st sem (approved)' numeric
@attribute 'Curricular units 1st sem (grade)' numeric
@attribute 'Curricular units 1st sem (without evaluations)' numeric
@attribute 'Curricular units 2nd sem (credited)' numeric
@attribute 'Curricular units 2nd sem (enrolled)' numeric
@attribute 'Curricular units 2nd sem (evaluations)' numeric
@attribute 'Curricular units 2nd sem (approved)' numeric
@attribute 'Curricular units 2nd sem (grade)' numeric
@attribute 'Curricular units 2nd sem (without evaluations)' numeric
@attribute 'Unemployment rate' numeric
@attribute 'Inflation rate' numeric
@attribute GDP numeric
@attribute Target {Dropout_Enrolled,Graduate}

@data
1,16,2,9238,1,1,133,1,Basic,Basic,133.7,1,0,0,1,0,0,18,0,6,6,6,13.5,0,0,6,6,6,12.166667,0,10.8,1.4,1.74,Graduate
1,1,2,9773,1,1,150,41,Secondary,Basic,130.8,0,0,0,1,0,1,20,0,6,9,5,11.8,0,0,6,9,5,11.833333,0,15.5,2.8,-4.06,Graduate
1,17,1,9085,1,1,120,1,Basic,Basic,127,0,0,0,1,0,0,19,0,5,7,3,12,0,0,5,7,5,13.2,0,7.6,2.6,0.32,Graduate
1,1,1,9500,1,1,157,1,Basic,Basic,143,0,0,0,1,1,0,18,0,8,8,7,13.4,0,0,8,8,7,13.4,0,12.7,3.7,-1.7,Graduate
1,1,2,9500,1,1,132,1,Basic,Basic,128,1,0,0,1,1,1,19,0,8,8,7,14.935714,0,0,8,8,7,14.935714,0,10.8,1.4,1.74,Graduate
1,44,1,9238,1,39,130,1,Basic,Basic,126.3,1,0,0,1,0,1,19,3,6,7,5,12.2,0,2,6,6,6,11.5,0,13.9,-0.3,0.79,Graduate
1,17,2,9500,1,1,135,1,Basic,Secondary,127.3,1,0,0,1,0,0,18,0,7,8,7,13.30625,0,0,8,8,8,14.545,0,15.5,2.8,-4.06,Graduate
1,1,1,9147,1,1,150,1,Secondary,Basic,137.8,1,0,0,1,1,1,19,0,5,6,5,13.2,0,0,5,6,5,12.666667,0,16.2,0.3,-0.92,Graduate
1,1,1,9130,1,1,140,1,Higher,Higher,127.8,0,0,0,1,1,0,18,0,6,7,6,14.285714,0,0,6,9,6,14.857143,0,11.1,0.6,2.02,Graduate
1,17,2,9070,1,1,133.1,1,Basic,Basic,178,1,0,0,1,1,1,23,0,6,8,6,13.333333,0,0,6,7,5,12.8,0,9.4,-0.8,-3.12,Graduate
1,44,1,9238,1,39,140,1,Secondary,Secondary,141.7,0,0,0,1,0,1,20,3,6,6,6,12.833333,0,2,6,6,6,12.833333,0,13.9,-0.3,0.79,Graduate
1,1,6,9500,1,1,144,1,Secondary,Basic,130.8,1,0,0,1,0,1,19,0,8,8,7,14.214286,0,0,8,8,7,14.214286,0,12.7,3.7,-1.7,Graduate
1,44,1,9130,1,39,150,1,Basic,Basic,150,1,0,0,1,1,0,22,0,5,7,4,14.5,0,0,5,5,5,14.6,0,10.8,1.4,1.74,Graduate
1,1,4,9500,1,1,135,1,Basic,Basic,123,1,0,0,1,0,1,18,0,8,8,7,13.381429,0,0,8,8,7,13.381429,0,10.8,1.4,1.74,Graduate
1,1,3,9773,1,1,158,1,Secondary,Basic,157,1,0,0,1,0,0,18,0,6,6,6,12.666667,0,0,6,7,6,12.571429,0,10.8,1.4,1.74,Graduate
2,39,1,8014,0,1,133.1,1,Basic,Basic,114,0,0,0,1,0,0,44,2,8,11,8,11.875,0,0,6,7,6,12.333333,0,12.7,3.7,-1.7,Graduate
1,42,1,9991,0,1,160,1,Secondary,Higher,120,0,0,0,1,0,0,30,4,7,9,7,14.142857,0,1,5,5,5,14.8,0,7.6,2.6,0.32,Graduate
1,43,2,9500,1,1,136,1,Basic,Basic,131.3,0,0,0,1,0,0,23,11,14,15,12,12.625,1,11,14,15,12,12.625,1,7.6,2.6,0.32,Graduate
1,10,2,9085,1,1,163.3,22,Basic,Secondary,163.3,0,0,0,1,0,0,18,0,6,10,6,13.5,0,0,6,12,6,12,0,12.4,0.5,1.79,Graduate
1,17,3,9238,1,1,118,1,Higher,Secondary,110,1,0,0,1,0,0,18,0,6,6,6,12,0,0,6,6,5,13.6,0,8.9,1.4,3.51,Graduate
1,1,1,9500,1,1,137,1,Basic,Basic,130.8,1,0,0,1,0,1,18,0,7,7,6,12.666667,0,0,7,7,6,12.666667,0,7.6,2.6,0.32,Graduate
1,1,5,9500,1,1,101,1,Basic,Basic,104.5,1,0,0,1,0,1,21,0,7,9,5,13.336,0,0,8,9,7,13.207143,0,11.1,0.6,2.02,Graduate
2,39,1,9773,1,38,100,1,Basic,Basic,154,1,0,0,1,1,0,57,0,6,7,5,14.2,0,0,6,6,6,14.166667,0,9.4,-0.8,-3.12,Graduate
1,39,1,9003,1,1,150,1,Basic,Basic,137,0,0,0,1,1,0,35,1,6,7,5,12.8,0,1,6,11,5,13.833333,0,15.5,2.8,-4.06,Graduate
1,17,1,9670,1,1,134,1,Basic,Basic,125.3,1,0,0,1,1,1,19,0,6,7,4,13.75,0,0,6,10,6,11.555556,0,10.8,1.4,1.74,Graduate
1,17,1,9670,1,1,117,1,Secondary,Secondary,117.7,1,0,0,1,1,0,20,0,6,9,6,14.666667,0,0,6,7,6,13.857143,0,8.9,1.4,3.51,Graduate
1,17,4,9500,1,1,121,1,Basic,Basic,118.9,1,0,0,1,0,0,21,0,7,7,7,14.428571,0,0,8,9,8,14.511111,0,16.2,0.3,-0.92,Graduate
1,1,1,9991,0,1,130,1,Higher,Basic,131.4,0,0,0,1,1,0,34,0,5,6,5,12.4,0,0,5,9,5,13.428571,0,13.9,-0.3,0.79,Graduate
1,1,1,9853,1,1,128,1,Basic,Basic,124.9,0,0,0,1,0,1,19,0,6,6,6,12.5,0,0,6,6,6,12.833333,0,12.7,3.7,-1.7,Graduate
1,17,3,9500,1,1,137,1,Secondary,Secondary,124.8,1,0,0,1,1,1,19,0,7,11,6,12.4125,0,0,8,12,7,11.2625,0,15.5,2.8,-4.06,Graduate
1,43,1,9003,1,1,130,1,Secondary,Higher,130,0,0,0,1,1,0,28,9,18,36,17,13.058824,1,6,12,15,12,12.307692,0,15.5,2.8,-4.06,Graduate
1,1,1,9085,1,1,122,1,Secondary,Basic,103.4,0,0,0,1,0,0,19,0,5,6,5,14.4,0,0,5,6,5,13,0,7.6,2.6,0.32,Graduate
1,17,3,9147,1,1,112,1,Secondary,Secondary,106.4,1,0,0,1,1,0,19,0,5,7,5,10.2,0,0,5,6,4,10.5,0,12.4,0.5,1.79,Graduate
1,44,1,9003,1,39,150,1,Basic,Basic,150,1,0,0,1,1,0,20,0,6,8,6,13.125,0,0,6,10,6,13.2,0,16.2,0.3,-0.92,Graduate
1,17,3,9500,1,1,133,1,Higher,Basic,130.8,1,0,0,1,0,0,19,0,8,8,8,13.4275,0,0,8,8,8,13.4275,0,9.4,-0.8,-3.12,Graduate
1,1,1,9254,1,1,132,1,Basic,Basic,120.1,0,0,0,1,0,1,20,0,6,6,6,12.333333,0,0,6,7,6,11.833333,0,13.9,-0.3,0.79,Graduate
1,17,5,9500,1,1,136,1,Basic,Basic,130.3,1,0,0,1,0,1,18,0,7,7,6,12.6,0,0,7,7,6,12.6,0,7.6,2.6,0.32,Graduate
1,1,3,9085,1,1,140,1,Secondary,Basic,135.8,1,0,0,1,0,0,18,0,5,6,5,13.333333,0,0,5,7,4,14.8,0,7.6,2.6,0.32,Graduate
1,1,1,9238,1,1,133.1,1,Basic,Basic,130,0,0,0,0,0,1,20,0,6,10,5,13.4,0,0,6,9,5,11.4,0,10.8,1.4,1.74,Graduate
1,1,1,9130,1,1,133,1,Basic,Basic,120.4,1,0,0,1,0,0,20,0,5,9,4,12,1,0,5,6,5,13.4,0,9.4,-0.8,-3.12,Graduate
1,1,1,9085,1,1,131,1,Basic,Basic,139.8,1,0,0,1,0,0,19,0,5,6,5,13.4,0,0,5,5,5,12.8,0,10.8,1.4,1.74,Graduate
1,1,1,9070,1,1,116,1,Secondary,Secondary,110.8,1,0,0,1,0,0,20,0,6,6,6,12.833333,0,0,6,10,6,11.166667,0,12.4,0.5,1.79,Graduate
1,1,1,9147,1,1,136,1,Basic,Basic,125.9,0,0,0,1,0,0,21,0,5,7,5,12.2,0,0,5,7,5,11.8,0,11.1,0.6,2.02,Graduate
1,1,6,9500,1,1,146,1,Higher,Basic,130.3,1,0,0,1,1,0,18,0,8,8,8,13.74625,0,0,8,8,8,13.74625,0,9.4,-0.8,-3.12,Graduate
1,43,1,9130,1,1,140,1,Higher,Higher,140,0,0,0,1,0,0,20,10,17,29,14,12.5625,4,7,12,24,12,12.857143,1,15.5,2.8,-4.06,Graduate
1,44,1,8014,0,39,160,1,Basic,Basic,156.1,0,0,0,1,0,1,21,3,6,6,6,14.666667,0,2,6,6,6,14.166667,0,13.9,-0.3,0.79,Graduate
1,17,2,9254,1,1,128,1,Basic,Basic,129.1,1,0,0,1,0,0,18,0,6,6,6,12.666667,0,0,6,7,5,14.6,0,11.1,0.6,2.02,Graduate
1,1,1,9853,1,1,115,1,Basic,Basic,108,0,0,0,1,0,1,19,0,7,10,6,13,0,0,7,7,7,13.285714,0,12.4,0.5,1.79,Graduate
1,17,5,9773,1,1,113,1,Basic,Basic,110.2,1,0,1,1,0,0,19,0,6,6,5,11.6,0,0,6,6,6,12.5,0,8.9,1.4,3.51,Graduate
1,17,5,9500,1,1,128,1,Secondary,Secondary,120.8,1,0,0,1,0,1,19,0,7,9,7,13.507143,0,0,8,12,8,13.05,0,16.2,0.3,-0.92,Graduate
1,1,1,9085,1,1,133.1,1,Basic,Basic,110,1,0,0,1,0,1,21,0,6,8,6,13.285714,0,0,6,11,6,13,0,11.1,0.6,2.02,Graduate
1,39,1,9500,1,1,133.1,1,Basic,Basic,120,0,0,0,1,0,1,25,0,8,8,7,12.042857,0,0,8,8,7,12.042857,0,12.7,3.7,-1.7,Graduate
1,43,2,9500,1,1,130,1,Basic,Basic,126.8,1,0,0,1,1,1,28,18,23,23,20,13.5,3,18,23,23,20,13.5,3,7.6,2.6,0.32,Graduate
1,17,2,9147,1,1,131,1,Secondary,Basic,120.2,1,0,0,1,0,0,21,0,5,10,4,11.75,0,0,5,6,5,11.6,0,12.4,0.5,1.79,Graduate
4,39,1,9003,1,19,133.1,1,Basic,Basic,110,0,0,0,1,1,0,49,6,12,17,7,12,0,3,12,19,9,11.222222,0,15.5,2.8,-4.06,Graduate
1,1,1,9085,1,1,120,1,Basic,Secondary,115.1,1,0,0,1,0,0,19,0,6,8,6,13.857143,0,0,6,9,5,13.4,0,13.9,-0.3,0.79,Graduate
1,17,1,9070,1,1,157,1,Higher,Higher,146.2,0,0,0,1,1,0,18,0,6,6,6,16,0,0,6,6,6,13.666667,0,12.4,0.5,1.79,Graduate
1,15,1,9853,1,1,133.1,41,Higher,Secondary,128.2,0,0,0,1,0,0,23,11,16,17,16,14.625,0,6,10,12,9,14.888889,0,8.9,1.4,3.51,Graduate
2,39,1,9003,1,1,140,1,Basic,Basic,104.8,0,0,0,1,0,0,46,14,19,24,19,12.210526,0,11,13,13,13,11.384615,0,15.5,2.8,-4.06,Graduate
1,1,3,9147,1,1,143,1,Secondary,Secondary,133.2,1,0,0,1,0,1,18,0,5,11,4,14.25,0,0,5,7,4,12.5,0,12.7,3.7,-1.7,Graduate
1,17,1,9254,1,1,142,1,Basic,Secondary,141.7,0,0,0,1,0,1,18,0,6,8,6,12.666667,0,0,6,6,6,13,0,13.9,-0.3,0.79,Graduate
1,1,3,9500,1,1,134,1,Basic,Basic,132.8,1,0,0,1,0,1,19,0,8,8,7,13.512857,0,0,8,8,7,13.512857,0,10.8,1.4,1.74,Graduate
1,1,1,9238,1,1,136,1,Basic,Basic,133.2,1,0,0,1,0,0,19,0,6,8,5,11,0,0,6,13,5,11.4,0,7.6,2.6,0.32,Graduate
1,1,3,9500,1,1,145,1,Basic,Basic,141.5,1,0,0,1,0,1,18,0,8,8,8,13.05875,0,0,8,8,8,13.05875,0,9.4,-0.8,-3.12,Graduate
1,1,4,9070,1,1,170,1,Higher,Higher,165.8,1,0,0,1,1,0,18,0,6,7,6,14.5,0,0,6,6,6,15.166667,0,9.4,-0.8,-3.12,Graduate
1,1,1,9085,1,1,144,13,Higher,Higher,137.6,1,0,0,1,0,1,19,0,5,6,5,15.4,0,0,5,5,5,16,0,10.8,1.4,1.74,Graduate
1,17,1,9070,1,1,141,1,Basic,Basic,133.7,1,0,0,1,1,0,22,0,6,7,5,11.4,0,0,6,6,6,12.166667,0,7.6,2.6,0.32,Graduate
1,17,1,8014,0,1,132,1,Basic,Basic,121.2,0,0,0,1,0,0,18,0,6,8,5,12.2,0,0,6,10,5,12.8,0,10.8,1.4,1.74,Graduate
1,17,1,9085,1,1,139,1,Basic,Basic,136.2,0,0,0,1,0,0,19,0,5,7,5,13,1,0,5,7,5,13.333333,0,7.6,2.6,0.32,Graduate
1,44,1,171,1,39,150,1,Higher,Higher,150,0,0,0,1,1,0,25,0,0,0,0,0,0,0,0,0,0,0,0,15.5,2.8,-4.06,Graduate
1,1,4,9773,1,1,124,1,Higher,Secondary,137,1,0,0,1,1,0,20,0,6,6,6,16.833333,0,0,6,6,6,16.666667,0,8.9,1.4,3.51,Graduate
1,17,1,9500,1,1,147,1,Secondary,Secondary,134.9,0,1,0,1,0,0,18,0,7,7,7,13.642857,0,0,8,11,8,14.772727,0,16.2,0.3,-0.92,Graduate
1,5,3,9070,1,1,157,1,Higher,Secondary,138.1,1,0,0,1,0,0,18,0,6,6,6,12.666667,0,0,6,8,6,14.125,0,10.8,1.4,1.74,Graduate
1,1,4,171,1,1,133.1,1,Secondary,Secondary,110,1,0,0,1,0,0,20,0,0,0,0,0,0,0,0,0,0,0,0,16.2,0.3,-0.92,Graduate
1,17,2,9254,1,1,141,1,Secondary,Higher,127.7,0,0,0,1,0,1,18,0,6,7,6,11.285714,0,0,6,9,4,13.5,0,16.2,0.3,-0.92,Graduate
1,17,2,9238,1,1,111,1,Basic,Basic,110.7,1,0,0,1,0,0,19,0,6,9,6,12.166667,0,0,6,9,6,11,0,8.9,1.4,3.51,Graduate
1,1,4,9500,1,1,125,1,Secondary,Secondary,115.2,1,0,0,1,0,0,20,0,7,7,7,12.982857,0,0,8,8,8,14.4625,0,12.4,0.5,1.79,Graduate
1,1,2,9147,1,1,142,1,Basic,Basic,137.5,1,0,0,1,1,0,19,0,5,10,5,12,0,0,5,9,5,11.5,0,13.9,-0.3,0.79,Graduate
2,39,1,9003,1,1,130,1,Basic,Basic,144,0,0,0,1,0,0,29,13,18,20,18,15.444444,0,11,13,13,13,15.307692,0,15.5,2.8,-4.06,Graduate
1,1,3,9500,1,1,142,1,Secondary,Secondary,131,1,0,0,1,0,0,18,0,8,8,7,14.7,0,0,8,8,7,14.7,0,10.8,1.4,1.74,Graduate
2,39,1,9991,0,12,133.1,1,Basic,Basic,133.8,1,0,0,1,1,0,52,0,5,5,5,13.6,0,0,5,5,5,14.2,0,7.6,2.6,0.32,Graduate
1,1,6,9500,1,1,141,1,Higher,Higher,136.3,1,0,0,1,1,0,18,0,8,9,8,12.8875,1,0,8,9,8,12.8875,1,9.4,-0.8,-3.12,Graduate
1,18,1,9147,1,1,121,1,Basic,Higher,115.8,1,0,0,1,0,1,19,0,5,7,5,11.6,0,0,5,5,5,11.6,0,12.4,0.5,1.79,Graduate
1,1,4,9500,1,1,148,1,Basic,Basic,125,1,0,0,1,0,0,18,0,7,7,6,13.9,0,0,7,7,6,13.9,0,7.6,2.6,0.32,Graduate
1,1,1,9238,1,1,126,1,Higher,Secondary,125.7,0,0,0,1,0,1,18,0,6,6,6,11.333333,0,0,6,8,6,11.333333,0,15.5,2.8,-4.06,Graduate
1,51,1,9991,0,1,141,1,Basic,Basic,100,0,0,0,1,0,0,21,1,5,9,4,11.5,0,1,5,5,5,11.4,0,8.9,1.4,3.51,Graduate
1,1,1,9085,1,1,139,1,Higher,Higher,130.6,0,0,0,1,0,0,18,0,5,12,5,12.8,2,0,5,10,5,11.857143,1,9.4,-0.8,-3.12,Graduate
1,17,4,9773,1,1,118,1,Secondary,Basic,120.8,1,0,0,1,0,0,20,0,6,9,4,13.25,0,0,6,11,5,11.8,0,12.4,0.5,1.79,Graduate
1,1,1,9500,1,1,139,1,Basic,Basic,131.5,1,0,0,1,0,0,18,0,8,8,7,14.137143,0,0,8,8,7,14.137143,0,10.8,1.4,1.74,Graduate
1,1,1,9773,1,1,133.1,1,Basic,Basic,146,0,0,1,1,0,0,20,0,6,6,5,11,0,0,6,6,6,13.166667,0,16.2,0.3,-0.92,Graduate
1,43,1,9991,0,1,140,1,Secondary,Secondary,100,0,0,0,1,1,0,34,0,5,5,5,13.8,0,0,5,6,5,13.833333,0,9.4,-0.8,-3.12,Graduate
1,1,2,9773,1,1,132,1,Secondary,Higher,128.2,1,0,0,1,0,1,19,0,6,7,6,12.333333,0,0,6,6,6,13.5,0,9.4,-0.8,-3.12,Graduate
1,15,1,9147,1,1,140,26,Basic,Higher,140,0,0,1,1,1,0,19,0,5,12,3,10.5,0,0,5,8,4,11.25,0,12.4,0.5,1.79,Graduate
1,17,5,9119,1,1,124,11,Higher,Secondary,119.5,1,0,0,1,1,0,20,0,5,5,5,14.8,0,0,5,5,5,17.6,0,8.9,1.4,3.51,Graduate
1,1,5,9500,1,1,132,1,Basic,Basic,120.3,1,0,0,1,0,1,18,0,7,7,7,13.75,0,0,8,9,8,14.477778,0,12.4,0.5,1.79,Graduate
1,17,1,9670,1,1,126,1,Secondary,Basic,122.2,0,0,0,1,0,1,19,0,6,6,6,13.666667,0,0,6,9,6,13.666667,0,8.9,1.4,3.51,Graduate
1,1,2,171,1,1,133.1,1,Higher,Secondary,141,1,0,0,1,0,0,19,0,0,0,0,0,0,0,0,0,0,0,0,12.7,3.7,-1.7,Graduate
1,17,1,9130,1,1,130,1,Higher,Basic,115.9,0,0,0,1,0,0,18,0,5,14,2,12,2,0,5,6,5,12.6,0,9.4,-0.8,-3.12,Graduate
1,51,1,9500,1,1,170,1,Secondary,Secondary,125,0,0,0,1,1,0,20,0,7,7,7,15.66,0,7,10,11,9,15.011111,0,11.1,0.6,2.02,Graduate
1,1,1,9238,1,1,116,1,Basic,Basic,116.4,1,0,0,1,0,0,18,0,6,6,6,13.166667,0,0,6,6,6,13.166667,0,8.9,1.4,3.51,Graduate
1,16,1,9003,1,1,147,1,Secondary,Basic,140.7,1,0,1,1,0,1,20,13,18,19,18,15.052632,0,11,13,13,13,14.538462,0,15.5,2.8,-4.06,Graduate
1,1,1,9853,1,1,153,1,Secondary,Basic,139.7,1,0,0,1,0,1,19,0,7,7,7,13.428571,0,0,7,7,7,14.857143,0,11.1,0.6,2.02,Graduate
3,39,1,9991,0,1,120,1,Basic,Secondary,170,0,0,0,1,1,0,43,0,5,5,5,11.8,0,0,5,6,5,14,0,9.4,-0.8,-3.12,Graduate
1,17,1,9238,1,1,128,1,Basic,Secondary,122.1,1,0,0,1,0,0,18,0,6,9,5,11.833333,0,0,6,7,5,13.8,0,13.9,-0.3,0.79,Graduate
1,1,1,9085,1,1,111,1,Secondary,Basic,107.5,0,0,0,1,1,1,19,0,6,9,6,13.833333,0,0,6,12,5,13.666667,0,11.1,0.6,2.02,Graduate
1,1,1,9238,1,1,135,1,Basic,Basic,135,1,0,0,1,0,0,20,0,6,6,6,13.833333,0,0,6,6,6,11.833333,0,10.8,1.4,1.74,Graduate
1,1,3,9147,1,1,128,1,Higher,Higher,116.5,0,0,0,1,1,0,20,0,5,7,5,11.6,0,0,5,5,5,12.8,0,12.4,0.5,1.79,Graduate
1,1,1,9773,1,1,164,1,Basic,Secondary,161.2,0,0,0,1,1,1,18,0,6,7,6,15.571429,0,0,6,7,6,16.142857,0,13.9,-0.3,0.79,Graduate
1,17,1,9500,1,1,131,1,Secondary,Basic,125.4,1,0,0,1,0,0,19,0,7,13,5,12.5,0,0,8,14,7,12.166667,0,15.5,2.8,-4.06,Graduate
1,43,1,9070,1,39,130,1,Basic,Basic,124,1,0,0,1,0,1,21,4,12,12,12,13.333333,0,5,12,12,11,12.545455,0,15.5,2.8,-4.06,Graduate
1,44,1,9003,1,39,180,1,Secondary,Higher,180,0,0,0,1,0,0,21,0,6,6,6,15.833333,0,0,6,8,6,15.5,0,15.5,2.8,-4.06,Graduate
1,1,1,9130,1,1,172,1,Basic,Basic,163.3,1,0,0,1,0,1,18,0,6,8,6,14.5,0,0,6,11,4,13,0,13.9,-0.3,0.79,Graduate
1,1,1,9670,1,1,130,1,Basic,Basic,117.8,1,0,0,1,0,0,21,0,5,8,3,13,0,0,5,7,4,11.5,1,7.6,2.6,0.32,Graduate
1,1,1,9773,1,1,121,1,Secondary,Higher,113,1,0,0,1,1,1,18,0,6,7,6,11.666667,0,0,6,12,5,10.2,0,12.4,0.5,1.79,Graduate
1,17,1,9085,1,1,131,1,Secondary,Higher,129.3,1,0,0,1,0,0,19,0,5,10,4,11.25,1,0,5,10,3,10.333333,0,12.7,3.7,-1.7,Graduate
1,1,1,171,1,1,145,1,Secondary,Basic,150.6,1,0,0,1,1,0,18,0,0,0,0,0,0,0,0,0,0,0,0,10.8,1.4,1.74,Graduate
1,1,3,9147,1,1,115,1,Secondary,Basic,109.8,1,0,0,1,0,1,19,0,5,5,5,13.4,0,0,5,5,5,12.6,0,8.9,1.4,3.51,Graduate
1,17,1,9085,1,1,124,1,Basic,Basic,113.9,1,0,0,1,0,1,20,0,5,8,5,12,1,0,5,8,4,15,1,12.7,3.7,-1.7,Graduate
1,1,3,9500,1,1,139,1,Basic,Secondary,135,1,0,0,1,0,1,18,0,8,8,7,12.214286,0,0,8,8,7,12.214286,0,12.7,3.7,-1.7,Graduate
1,1,1,171,1,1,163,1,Basic,Secondary,143.1,0,0,0,1,1,0,18,0,0,0,0,0,0,0,0,0,0,0,0,9.4,-0.8,-3.12,Graduate
1,17,4,9500,1,1,146,1,Basic,Basic,135.8,1,0,0,1,0,0,18,0,7,7,6,13.983333,0,0,7,7,6,13.983333,0,7.6,2.6,0.32,Graduate
1,17,3,9070,1,1,128,1,Basic,Basic,124.5,1,0,0,1,1,0,18,0,6,6,6,14.166667,0,0,6,8,5,13,0,10.8,1.4,1.74,Graduate
1,1,1,9254,1,1,138,41,Secondary,Secondary,126.5,1,0,0,1,0,1,20,0,6,7,6,12.857143,0,0,6,8,5,11.8,0,8.9,1.4,3.51,Graduate
1,1,2,9670,1,1,121,1,Secondary,Basic,135.4,1,0,0,1,0,1,19,0,6,6,6,13.333333,0,0,6,10,5,13.4,0,8.9,1.4,3.51,Graduate
1,17,2,9670,1,1,110,1,Secondary,Secondary,115.3,1,0,0,1,1,0,19,0,6,8,6,13.857143,0,0,6,8,5,13,0,15.5,2.8,-4.06,Graduate
1,1,1,9773,1,1,127,1,Basic,Basic,116.5,0,0,0,1,0,1,19,0,6,7,6,14.285714,0,0,6,6,6,13.166667,0,11.1,0.6,2.02,Graduate
1,1,1,9773,1,1,134,1,Secondary,Basic,122.8,0,0,0,1,1,0,18,0,6,6,6,12,0,0,6,6,6,12.5,0,12.7,3.7,-1.7,Graduate
1,1,1,171,1,1,147,1,Basic,Basic,151.9,1,0,0,1,0,0,21,13,17,20,17,12,0,14,17,18,17,12.666667,0,11.1,0.6,2.02,Graduate
1,17,2,9147,1,1,142,1,Basic,Basic,127.3,0,0,0,1,0,1,18,0,5,5,5,11.2,0,0,5,5,5,11.8,0,11.1,0.6,2.02,Graduate
1,43,1,9500,1,1,141,1,Higher,Basic,100,0,0,0,1,1,0,18,0,7,7,7,11.828571,0,0,8,10,7,12.9125,0,13.9,-0.3,0.79,Graduate
1,17,1,9500,1,1,148,1,Secondary,Basic,143.3,0,0,0,1,0,1,18,0,7,7,7,13.442857,0,0,8,8,8,15.075,0,13.9,-0.3,0.79,Graduate
1,1,6,9500,1,1,137,1,Secondary,Secondary,126.3,1,0,0,1,0,1,18,0,8,8,8,13.42375,0,0,8,8,8,13.42375,0,9.4,-0.8,-3.12,Graduate
1,1,1,9238,1,1,141,1,Basic,Basic,138.9,0,0,0,1,0,0,18,0,6,9,6,13.714286,0,0,6,6,6,14.166667,0,13.9,-0.3,0.79,Graduate
1,17,5,9500,1,1,137,1,Secondary,Secondary,132.6,1,0,0,1,0,1,18,0,7,7,7,13.857143,0,0,8,8,8,14.9,0,13.9,-0.3,0.79,Graduate
1,17,4,9670,1,1,135,1,Basic,Basic,127,1,0,0,1,0,0,18,0,6,10,6,12.25,0,0,6,9,6,13.714286,0,11.1,0.6,2.02,Graduate
1,1,2,9500,1,1,141,1,Basic,Basic,126.3,1,0,0,1,0,0,19,0,7,10,7,13.805,0,0,8,8,8,14.2725,0,15.5,2.8,-4.06,Graduate
1,51,1,9070,1,1,125,1,Higher,Higher,130,1,0,0,1,1,0,20,2,6,7,6,12.833333,0,0,6,9,4,13.4,0,8.9,1.4,3.51,Graduate
1,44,1,8014,0,39,130,1,Basic,Basic,130,1,0,0,1,0,0,23,5,9,10,9,10.888889,0,3,8,10,6,11.333333,0,11.1,0.6,2.02,Graduate
1,44,1,9085,1,39,160,1,Basic,Basic,160,1,0,0,1,0,0,22,1,6,13,6,15,0,1,6,7,6,13.142857,0,16.2,0.3,-0.92,Graduate
1,17,4,9147,1,1,114,1,Basic,Basic,109.5,1,0,0,1,1,1,20,0,5,6,5,11.8,0,0,5,8,4,11.6,0,8.9,1.4,3.51,Graduate
1,1,2,9238,1,1,124,1,Basic,Basic,129.6,1,0,0,1,1,0,19,0,6,10,6,11.125,0,0,6,7,6,11.857143,0,7.6,2.6,0.32,Graduate
1,43,1,9991,0,4,160,1,Higher,Higher,125,0,0,0,1,1,0,26,0,5,7,5,12.6,0,0,5,7,5,13.714286,0,13.9,-0.3,0.79,Graduate
1,17,6,9500,1,1,150,1,Secondary,Basic,131.5,1,0,0,1,0,0,19,0,8,8,7,13.925714,0,0,8,8,7,13.925714,0,10.8,1.4,1.74,Graduate
1,1,1,171,1,1,142,1,Basic,Basic,142,1,0,0,1,0,1,18,0,0,0,0,0,0,0,0,0,0,0,0,13.9,-0.3,0.79,Graduate
1,1,2,9500,1,1,135,1,Basic,Secondary,132.8,1,0,0,1,0,1,18,0,8,12,7,11.721429,0,0,8,12,7,11.721429,0,12.7,3.7,-1.7,Graduate
1,17,1,9238,1,1,134,1,Higher,Secondary,133,1,0,0,1,0,0,18,0,6,8,6,11.75,0,0,6,10,5,12,0,12.7,3.7,-1.7,Graduate
1,17,1,9853,1,1,133,1,Basic,Basic,127.4,0,0,1,1,0,1,18,0,7,7,7,12.714286,0,0,7,7,7,12.285714,0,16.2,0.3,-0.92,Graduate
1,51,1,9238,1,1,160,1,Higher,Basic,116.1,0,0,1,1,0,0,26,0,6,6,6,14.833333,0,0,6,7,6,15.142857,0,11.1,0.6,2.02,Graduate
1,1,1,9238,1,1,128,1,Basic,Basic,124.5,1,0,0,1,0,1,18,0,6,10,4,12.4,0,0,6,8,6,12.5,0,12.4,0.5,1.79,Graduate
1,39,2,8014,0,1,141,1,Basic,Basic,150.5,0,0,0,1,0,0,29,0,6,7,6,13.166667,0,0,6,8,6,15.625,0,12.4,0.5,1.79,Graduate
1,17,4,9853,1,1,140,1,Basic,Basic,128.5,1,0,0,1,0,0,18,0,6,7,6,11.666667,0,0,6,10,6,11.833333,0,10.8,1.4,1.74,Graduate
1,1,1,9147,1,1,127,1,Higher,Basic,121.8,0,0,0,1,0,0,18,0,5,5,5,12.6,0,0,5,5,5,14,0,11.1,0.6,2.02,Graduate
1,1,4,9500,1,1,136,1,Basic,Basic,125.5,1,0,0,1,0,1,21,0,7,7,6,14.033333,0,0,7,7,6,14.033333,0,7.6,2.6,0.32,Graduate
4,39,1,9991,0,1,133.1,1,Basic,Basic,136.2,0,0,0,1,0,0,39,0,5,6,5,11,0,0,5,9,5,11.666667,0,10.8,1.4,1.74,Graduate
2,39,2,9670,1,1,100,1,Basic,Basic,110,0,0,0,1,1,1,36,0,5,5,5,11.4,0,0,5,7,5,11.6,0,9.4,-0.8,-3.12,Graduate
1,39,1,9147,1,19,133.1,1,Higher,Secondary,153.2,1,0,1,1,0,0,24,0,5,8,5,10.2,0,0,5,6,5,12.2,0,12.4,0.5,1.79,Graduate
1,7,1,9254,1,40,130,1,Secondary,Secondary,130,0,0,0,1,0,0,39,12,13,14,13,13.769231,0,9,12,16,12,14.583333,0,13.9,-0.3,0.79,Graduate
1,1,4,9070,1,1,139,1,Higher,Basic,138.3,1,0,0,1,0,0,19,0,6,6,6,14.666667,0,0,6,6,6,13.166667,0,9.4,-0.8,-3.12,Graduate
1,51,1,9070,1,1,135,1,Higher,Secondary,121.8,0,0,0,1,0,1,19,5,11,11,11,13.181818,0,5,11,11,11,12.909091,0,11.1,0.6,2.02,Graduate
1,17,1,9500,1,1,130,1,Higher,Higher,131.1,0,0,0,1,1,0,19,0,7,8,7,12.121429,0,0,9,12,8,11.50625,0,12.4,0.5,1.79,Graduate
1,7,1,9147,1,40,110,1,Basic,Basic,110,0,0,0,1,0,0,52,11,15,26,14,10.466667,0,9,12,16,12,10.923077,0,13.9,-0.3,0.79,Graduate
1,1,1,9500,1,1,143,1,Higher,Higher,129,0,0,0,1,1,0,18,0,8,8,7,13.105714,0,0,8,8,7,13.105714,0,10.8,1.4,1.74,Graduate
2,39,1,8014,0,12,133.1,1,Basic,Basic,113,0,0,0,1,0,0,46,0,6,13,3,12.333333,0,0,6,6,6,13.333333,0,11.1,0.6,2.02,Graduate
1,1,1,9238,1,1,107,1,Basic,Basic,103.5,1,0,0,1,0,0,20,0,6,7,6,12,0,0,6,7,6,13,0,12.4,0.5,1.79,Graduate
1,1,2,9500,1,1,145,1,Higher,Higher,127.3,1,0,0,1,1,0,18,0,8,8,7,11.69,0,0,8,8,7,11.69,0,10.8,1.4,1.74,Graduate
1,1,2,9773,1,1,137,1,Secondary,Basic,133.2,1,0,0,1,0,1,19,0,6,7,6,14.714286,0,0,6,6,6,15,0,13.9,-0.3,0.79,Graduate
2,43,3,8014,0,19,100,1,Basic,Basic,120,1,0,0,1,1,0,41,5,9,11,9,12,0,3,7,8,6,12,0,9.4,-0.8,-3.12,Graduate
1,1,1,9070,1,1,117,1,Higher,Basic,123.7,1,0,0,1,0,0,19,0,6,6,6,12.666667,0,0,6,8,5,11.4,0,12.4,0.5,1.79,Graduate
1,1,5,9500,1,1,143,1,Basic,Basic,131.6,1,0,0,1,0,1,19,0,7,10,7,14.368,0,0,8,8,8,14.44875,0,15.5,2.8,-4.06,Graduate
1,17,1,9238,1,1,123,1,Secondary,Secondary,115.7,1,0,0,1,0,0,21,0,6,8,6,12.166667,0,0,6,7,6,13.285714,0,11.1,0.6,2.02,Graduate
4,7,1,9500,1,3,140,1,Basic,Basic,140,0,0,0,1,1,0,51,4,7,7,7,15.2,0,6,8,8,8,16.575,0,13.9,-0.3,0.79,Graduate
1,17,1,9238,1,1,127,1,Basic,Basic,122.8,0,0,0,1,0,1,19,0,6,8,6,14,0,0,6,7,6,14.571429,0,16.2,0.3,-0.92,Graduate
1,17,1,9085,1,1,141,1,Higher,Higher,130.2,1,0,0,1,0,0,20,0,6,14,6,15.75,0,0,6,8,6,13,0,15.5,2.8,-4.06,Graduate
1,1,5,9670,1,1,142,1,Basic,Basic,132.9,0,0,0,1,1,0,19,0,5,5,4,12.5,0,0,5,5,4,14.25,0,7.6,2.6,0.32,Graduate
1,1,4,9147,1,1,116,1,Secondary,Secondary,113.6,1,0,0,1,0,1,22,0,5,6,3,14,0,0,5,8,5,12.4,0,11.1,0.6,2.02,Graduate
1,1,3,9500,1,1,130,1,Basic,Basic,130.5,1,0,0,1,0,0,19,0,7,7,6,12.45,0,0,7,7,6,12.45,0,7.6,2.6,0.32,Graduate
1,17,1,9670,1,1,120,1,Basic,Basic,113,1,0,0,1,0,0,20,0,5,7,4,12.2,0,0,5,5,4,11.5,0,7.6,2.6,0.32,Graduate
1,17,1,9500,1,1,121,1,Secondary,Secondary,120.5,1,0,0,1,0,0,21,0,8,8,7,12.91,0,0,8,8,7,12.91,0,10.8,1.4,1.74,Graduate
1,43,3,171,1,1,120,1,Basic,Basic,143.3,1,0,0,1,0,1,20,0,0,0,0,0,0,0,0,0,0,0,0,7.6,2.6,0.32,Graduate
1,1,1,9070,1,1,124,1,Basic,Basic,125.4,1,0,0,1,1,0,19,0,6,6,6,13.5,0,0,6,6,6,13.166667,0,9.4,-0.8,-3.12,Graduate
1,17,5,9773,1,1,134,1,Secondary,Basic,121.8,1,0,0,1,1,0,19,0,6,6,6,13.166667,0,0,6,8,6,12.428571,0,16.2,0.3,-0.92,Graduate
1,1,1,9500,1,1,138,1,Basic,Basic,144.3,0,0,0,1,0,0,20,0,7,9,6,12.7,0,0,8,8,7,13.571429,0,13.9,-0.3,0.79,Graduate
2,43,1,9238,1,12,100,1,Basic,Basic,134.4,0,0,0,1,0,0,34,9,16,20,14,12.071429,1,11,13,13,11,12.272727,0,7.6,2.6,0.32,Graduate
1,1,1,9853,1,1,135,1,Basic,Secondary,137.1,1,0,0,1,0,0,18,0,6,6,6,13.333333,0,0,6,7,6,12.333333,0,7.6,2.6,0.32,Graduate
1,17,4,9670,1,1,126,1,Basic,Basic,119.4,1,0,0,1,0,1,18,0,6,6,6,14,0,0,6,9,5,13.8,0,8.9,1.4,3.51,Graduate
1,44,1,9003,1,39,130,1,Secondary,Basic,130,1,0,0,1,1,0,20,0,6,14,5,11.714286,0,0,6,15,5,12,0,16.2,0.3,-0.92,Graduate
2,7,1,9991,0,43,140,1,Higher,Higher,140,0,0,0,1,0,0,33,2,6,7,6,15.333333,0,0,5,5,5,15.8,0,11.1,0.6,2.02,Graduate
2,39,1,9853,1,1,130,1,Basic,Basic,140,0,0,1,1,0,1,34,0,6,7,6,16.142857,0,0,6,10,6,16.2,0,9.4,-0.8,-3.12,Graduate
1,1,2,9773,1,1,159,1,Secondary,Secondary,151,1,0,0,1,0,0,18,0,6,6,6,14.833333,0,0,6,6,6,15.333333,0,12.7,3.7,-1.7,Graduate
1,1,3,171,1,1,155,1,Higher,Higher,144.2,1,0,0,1,1,0,19,0,0,0,0,0,0,0,0,0,0,0,0,12.7,3.7,-1.7,Graduate
1,17,3,9070,1,1,130,1,Secondary,Higher,131.4,0,0,0,1,1,0,20,0,6,6,6,14.166667,0,0,6,8,6,12.333333,0,11.1,0.6,2.02,Graduate
1,1,1,9500,1,1,133.1,1,Basic,Basic,101,0,0,0,1,1,0,20,0,7,14,5,12.878571,0,0,8,15,7,11.85625,0,15.5,2.8,-4.06,Graduate
1,17,6,9254,1,1,125,1,Secondary,Secondary,120.5,1,0,0,1,1,0,18,0,6,6,6,14,0,0,6,6,6,14.666667,0,11.1,0.6,2.02,Graduate
1,1,2,9500,1,1,139,1,Higher,Secondary,136.4,1,0,0,1,0,0,19,0,7,9,7,13.422222,0,0,8,11,7,12.188889,0,15.5,2.8,-4.06,Graduate
2,39,1,9991,0,1,120,1,Basic,Basic,120.7,0,0,0,1,0,0,39,0,5,6,5,11,0,0,5,5,5,13.2,0,7.6,2.6,0.32,Graduate
1,1,6,9500,1,1,141,1,Basic,Secondary,126.8,1,0,0,1,0,0,18,0,8,8,7,12.944286,0,0,8,8,7,12.944286,0,10.8,1.4,1.74,Graduate
1,1,1,9773,1,1,153,1,Secondary,Secondary,157.9,0,0,1,1,0,1,18,0,6,6,6,14.833333,0,0,6,6,6,14.833333,0,8.9,1.4,3.51,Graduate
1,1,1,9773,1,1,135,1,Secondary,Higher,124.9,0,0,0,1,0,1,20,0,6,7,6,12.666667,0,0,6,6,6,12.833333,0,10.8,1.4,1.74,Graduate
1,17,1,9238,1,1,139,1,Basic,Basic,146.7,1,0,0,1,0,1,20,0,6,6,6,13.333333,0,0,6,7,6,14,0,15.5,2.8,-4.06,Graduate
1,1,1,9147,1,1,139,1,Basic,Secondary,127.1,1,0,0,1,1,1,22,0,5,8,5,11.2,0,0,5,13,4,11.25,0,12.7,3.7,-1.7,Graduate
1,44,1,9003,1,39,150,1,Basic,Basic,150,1,0,0,1,1,0,20,0,6,8,5,12.857143,0,0,6,11,6,12.3,0,16.2,0.3,-0.92,Graduate
1,17,3,9500,1,1,129,1,Basic,Basic,120,1,0,0,1,0,1,19,0,8,8,7,13.151429,0,0,8,8,7,13.151429,0,10.8,1.4,1.74,Graduate
1,1,3,9500,1,1,141,1,Higher,Basic,126.8,1,0,0,1,1,0,18,0,8,8,8,13.24875,0,0,8,8,8,13.24875,0,9.4,-0.8,-3.12,Graduate
1,44,1,9238,1,1,140,1,Secondary,Secondary,143.4,0,0,0,1,0,1,21,3,6,6,6,14.833333,0,2,6,7,6,12.571429,0,13.9,-0.3,0.79,Graduate
1,1,1,171,1,1,151,41,Higher,Higher,161.9,1,0,0,1,0,1,19,0,0,0,0,0,0,0,0,0,0,0,0,13.9,-0.3,0.79,Graduate
1,15,1,9670,1,1,130,26,Higher,Secondary,130,0,1,1,1,0,0,20,0,6,6,6,13.5,0,0,6,9,5,13,0,8.9,1.4,3.51,Graduate
1,1,1,9070,1,1,130,1,Secondary,Basic,118.5,0,1,0,1,0,1,18,0,6,6,6,12,0,0,6,8,6,11.285714,0,8.9,1.4,3.51,Graduate
1,17,1,9085,1,1,129,1,Secondary,Basic,118.2,1,0,0,1,0,1,18,0,5,7,4,13.25,0,0,5,8,5,15.571429,0,10.8,1.4,1.74,Graduate
1,1,4,9500,1,1,138,1,Basic,Basic,127.8,1,0,0,1,0,0,19,0,7,7,6,14.983333,0,0,7,7,6,14.983333,0,7.6,2.6,0.32,Graduate
1,1,1,9085,1,1,134,1,Secondary,Secondary,133,1,0,0,1,0,1,20,0,6,8,6,15.142857,0,0,6,8,6,15.142857,0,11.1,0.6,2.02,Graduate
1,1,6,9500,1,1,131,1,Basic,Basic,125.3,1,0,0,1,0,1,19,0,8,8,7,12.355714,0,0,8,8,7,12.355714,0,10.8,1.4,1.74,Graduate
1,17,3,9119,1,1,130,1,Secondary,Basic,129.3,0,0,0,1,1,1,18,0,5,5,5,13,0,0,5,5,5,14.2,0,8.9,1.4,3.51,Graduate
1,1,1,9254,1,1,136,1,Secondary,Secondary,122,1,0,0,1,0,0,18,0,6,8,6,11.333333,0,0,6,11,6,10.833333,0,7.6,2.6,0.32,Graduate
1,1,1,9254,1,1,111,1,Secondary,Secondary,112.4,1,0,0,1,1,0,20,0,6,10,6,12.333333,0,0,6,9,4,13,0,12.4,0.5,1.79,Graduate
1,1,1,9085,1,1,138,1,Secondary,Higher,123,1,0,0,1,0,0,19,1,6,14,6,15.538462,0,0,6,9,6,12.625,0,15.5,2.8,-4.06,Graduate
1,1,3,9500,1,1,147,1,Secondary,Secondary,134.3,1,0,0,1,0,0,18,0,8,8,7,14.2,0,0,8,8,7,14.2,0,12.7,3.7,-1.7,Graduate
1,17,1,9773,1,1,122,1,Secondary,Secondary,116.8,1,0,1,1,0,0,18,0,6,6,6,11.666667,0,0,6,6,6,12.333333,0,16.2,0.3,-0.92,Graduate
1,1,6,9238,1,1,113,1,Secondary,Basic,112.3,1,0,1,1,0,1,20,0,6,8,5,11.6,0,0,6,8,4,11.75,0,8.9,1.4,3.51,Graduate
1,1,2,9070,1,1,145,1,Basic,Basic,130,1,0,0,1,1,0,18,0,6,7,6,12.833333,0,0,6,7,6,12.571429,0,8.9,1.4,3.51,Graduate
1,1,1,9500,1,1,133,1,Basic,Basic,130.2,1,0,0,1,1,1,19,0,7,7,7,13.7,0,0,8,9,8,14.022222,0,16.2,0.3,-0.92,Graduate
1,1,4,9500,1,1,140,1,Basic,Basic,133.2,1,0,0,1,0,1,20,0,7,10,7,14.175,0,0,8,14,6,13.03125,0,15.5,2.8,-4.06,Graduate
1,17,4,9238,1,1,129,1,Basic,Basic,117.1,1,0,0,1,1,0,21,0,6,6,6,12.333333,0,0,6,7,6,13.666667,0,8.9,1.4,3.51,Graduate
1,1,5,9147,1,1,118,1,Basic,Basic,114.2,1,0,0,1,1,0,20,0,5,9,3,10.333333,0,0,5,6,5,12.8,0,12.4,0.5,1.79,Graduate
1,17,4,9773,1,1,138,1,Basic,Basic,133.5,1,0,0,0,0,0,18,0,6,7,6,12.5,0,0,6,6,6,12.166667,0,10.8,1.4,1.74,Graduate
1,1,1,9147,1,1,138,1,Basic,Basic,145,1,0,0,1,0,0,18,0,5,6,5,13,0,0,5,5,5,14,0,7.6,2.6,0.32,Graduate
1,1,5,9500,1,1,127,1,Basic,Basic,120.3,1,0,0,1,0,1,18,0,8,8,7,12.694286,0,0,8,8,7,12.694286,0,10.8,1.4,1.74,Graduate
1,7,1,9500,1,40,170,1,Secondary,Secondary,170,0,0,0,1,0,0,24,4,7,7,7,16.885714,0,3,8,9,8,15.744444,0,16.2,0.3,-0.92,Graduate
1,43,1,9070,1,1,130,1,Basic,Basic,129,1,0,0,1,0,0,25,0,6,6,6,13.5,0,0,6,6,6,12.5,0,9.4,-0.8,-3.12,Graduate
1,7,1,9853,1,3,150,1,Basic,Basic,150,0,0,1,0,0,0,25,1,6,7,6,14.428571,0,0,6,7,6,13.666667,0,10.8,1.4,1.74,Graduate
1,43,1,9991,0,1,130,1,Basic,Basic,124,0,0,0,1,1,0,31,1,5,6,5,13.833333,0,0,5,7,5,15.4,0,9.4,-0.8,-3.12,Graduate
1,17,1,9670,1,1,118,1,Secondary,Basic,118.7,0,0,0,1,1,1,19,0,6,7,6,12,0,0,6,6,6,14,0,12.4,0.5,1.79,Graduate
2,39,1,9254,1,1,130,1,Basic,Basic,120,1,0,0,1,0,0,34,0,6,7,5,12.4,0,0,6,8,5,12.8,0,9.4,-0.8,-3.12,Graduate
1,18,1,9500,1,1,123,1,Basic,Basic,118,1,0,0,1,0,1,19,0,8,8,7,11.82,0,0,8,8,7,11.82,0,10.8,1.4,1.74,Graduate
2,39,1,9003,1,1,120,1,Basic,Basic,155.8,0,0,0,1,1,0,29,0,6,9,6,16.111111,0,0,6,7,6,13.5,0,13.9,-0.3,0.79,Graduate
1,1,1,9085,1,1,121,1,Basic,Basic,121,0,0,0,1,0,0,19,0,5,9,4,13.75,1,0,5,8,4,14.5,0,7.6,2.6,0.32,Graduate
1,39,2,8014,0,1,100,1,Basic,Basic,100,0,0,0,1,0,0,41,0,6,10,4,13.5,0,1,6,7,6,11.166667,0,7.6,2.6,0.32,Graduate
1,1,4,9500,1,1,125,1,Basic,Secondary,117.8,1,0,0,1,0,0,18,0,7,10,7,13.03,0,0,8,8,8,13.21875,0,15.5,2.8,-4.06,Graduate
1,17,1,9085,1,1,128,1,Basic,Basic,116.5,1,0,0,1,1,0,18,0,5,6,5,12,0,0,5,8,5,12.142857,0,10.8,1.4,1.74,Graduate
1,1,1,9500,1,1,154,1,Basic,Basic,142,0,0,0,1,1,0,19,0,8,8,7,13.714286,0,0,8,8,7,13.714286,0,12.7,3.7,-1.7,Graduate
2,1,1,9991,0,1,144,1,Basic,Basic,151.4,0,0,0,1,0,0,28,0,5,5,5,12,0,0,5,6,5,11.6,0,7.6,2.6,0.32,Graduate
1,1,2,9500,1,1,133,1,Basic,Basic,128.5,1,0,0,1,0,1,19,0,8,8,8,14.07125,0,0,8,8,8,14.07125,0,9.4,-0.8,-3.12,Graduate
1,1,1,9147,1,1,143,1,Secondary,Basic,133.9,0,0,0,1,0,1,18,0,5,5,5,15,0,0,5,5,5,15.2,0,12.7,3.7,-1.7,Graduate
1,44,1,9003,1,39,160,1,Basic,Basic,160,0,0,0,1,0,1,20,0,6,8,6,12.625,0,0,6,10,6,13.2,0,16.2,0.3,-0.92,Graduate
1,1,1,9070,1,1,147,1,Higher,Secondary,149.8,1,0,0,1,1,0,20,5,12,12,11,14.272727,0,5,12,12,11,14.818182,0,16.2,0.3,-0.92,Graduate
1,1,1,171,1,1,146,1,Basic,Basic,153,1,0,0,1,0,1,21,15,17,18,17,13.388889,0,15,17,18,17,14.888889,0,11.1,0.6,2.02,Graduate
1,17,1,9238,1,1,125,1,Secondary,Basic,123.3,0,0,0,1,0,1,19,0,6,8,6,11.5,0,0,6,7,6,12.333333,0,12.4,0.5,1.79,Graduate
1,1,2,9085,1,1,157,1,Higher,Higher,153.9,1,0,0,1,0,0,18,0,6,7,6,16.571429,0,0,6,6,6,15.666667,0,13.9,-0.3,0.79,Graduate
1,17,1,9147,1,1,139,1,Secondary,Basic,152,0,0,0,1,0,1,18,0,5,5,5,14.6,0,0,5,8,5,12,0,12.7,3.7,-1.7,Graduate
1,1,1,9238,1,1,125,1,Basic,Basic,121.5,1,0,0,1,0,1,19,0,6,9,6,10.857143,0,0,6,7,6,11.666667,0,12.4,0.5,1.79,Graduate
1,7,1,9238,1,3,140,1,Basic,Basic,140,1,0,0,1,0,0,36,10,14,21,13,13.071429,0,4,11,16,11,13,0,16.2,0.3,-0.92,Graduate
1,1,1,9147,1,1,124,1,Basic,Basic,115.6,0,0,0,1,1,1,20,0,5,8,5,12.375,0,0,5,7,5,11.666667,0,13.9,-0.3,0.79,Graduate
2,39,1,9003,1,1,120,1,Basic,Basic,148.8,0,0,0,1,0,0,50,0,6,7,6,12.5,0,0,6,15,5,12.4,0,8.9,1.4,3.51,Graduate
1,18,1,9500,1,1,178,1,Basic,Secondary,174.7,0,0,0,1,0,0,18,0,7,8,7,17.125,0,0,8,8,8,17.5875,0,13.9,-0.3,0.79,Graduate
1,1,1,9238,1,1,167,1,Basic,Basic,156.2,0,0,0,1,0,1,18,0,6,6,6,14.333333,0,0,6,7,6,14.142857,0,15.5,2.8,-4.06,Graduate
1,1,6,9500,1,1,141,1,Secondary,Basic,125,1,0,0,1,0,1,18,0,8,8,8,12.32,0,0,8,8,8,12.32,0,9.4,-0.8,-3.12,Graduate
1,1,2,9670,1,1,140,1,Higher,Secondary,137.6,1,0,0,1,1,1,21,0,6,8,6,15.166667,0,0,6,7,6,14.428571,0,8.9,1.4,3.51,Graduate
1,5,2,9238,1,1,123,1,Higher,Basic,118.1,1,0,0,1,0,0,19,0,6,6,6,14,0,0,6,6,6,13.333333,0,8.9,1.4,3.51,Graduate
1,39,1,9254,1,1,160,1,Higher,Secondary,116.3,1,0,0,1,0,0,24,0,6,8,5,12.6,0,0,6,7,5,12.2,0,9.4,-0.8,-3.12,Graduate
2,39,1,9003,1,1,130,1,Secondary,Basic,152.4,1,0,0,1,0,0,36,4,12,14,12,13.846154,0,5,12,18,11,14.090909,0,8.9,1.4,3.51,Graduate
1,1,3,9254,1,1,123,1,Secondary,Secondary,123.4,1,0,0,1,1,0,18,0,6,8,6,12.333333,0,0,6,6,6,13.666667,0,11.1,0.6,2.02,Graduate
1,18,1,9773,1,1,125,1,Secondary,Secondary,121.5,1,0,0,1,1,0,19,0,6,6,6,13.833333,0,0,6,6,6,14.5,0,8.9,1.4,3.51,Graduate
1,1,2,9070,1,1,135,1,Secondary,Secondary,129.8,1,0,0,1,0,0,19,0,6,6,6,11.833333,0,0,6,7,6,13,0,9.4,-0.8,-3.12,Graduate
1,1,1,8014,0,1,100,1,Basic,Basic,112.8,0,0,0,1,0,1,23,0,6,6,6,14.166667,0,0,6,6,6,12.5,0,12.7,3.7,-1.7,Graduate
1,1,6,9500,1,1,118,1,Basic,Basic,114.2,1,0,0,1,0,0,20,0,7,9,6,13.683333,0,0,8,11,6,13.116667,0,11.1,0.6,2.02,Graduate
2,39,1,8014,0,12,110,1,Basic,Basic,120,0,0,0,1,0,0,42,0,6,6,6,11.666667,0,0,6,6,6,13.666667,0,10.8,1.4,1.74,Graduate
2,39,1,8014,0,1,140,1,Basic,Basic,101,0,0,0,1,0,0,35,0,6,7,6,12.5,0,0,6,6,6,12.166667,0,15.5,2.8,-4.06,Graduate
1,7,1,9147,1,3,130,1,Basic,Basic,130,0,0,0,1,0,0,27,0,5,9,3,12,0,0,5,11,4,13.625,0,10.8,1.4,1.74,Graduate
1,1,5,9773,1,1,135,1,Basic,Secondary,124.9,1,0,0,1,0,0,18,0,6,6,6,13.666667,0,0,6,6,6,13.333333,0,8.9,1.4,3.51,Graduate
1,17,1,9238,1,1,153,1,Basic,Basic,159.7,1,0,0,1,0,1,18,0,6,7,6,15.142857,0,0,6,6,6,15.833333,0,12.7,3.7,-1.7,Graduate
1,17,5,9500,1,1,137,1,Secondary,Secondary,127.6,1,0,0,1,0,0,18,0,7,7,7,13.528571,0,0,8,9,8,14.655556,0,12.4,0.5,1.79,Graduate
1,17,2,9254,1,1,131,1,Secondary,Basic,130.3,1,0,0,1,0,1,18,0,6,6,6,12.833333,0,0,6,7,6,12.333333,0,13.9,-0.3,0.79,Graduate
1,1,1,9500,1,1,125,1,Basic,Basic,118.8,0,0,0,1,1,0,24,0,7,7,6,13.3,0,0,7,7,6,13.3,0,7.6,2.6,0.32,Graduate
2,39,1,8014,0,1,140,1,Basic,Basic,102.5,0,0,0,1,0,1,32,0,6,6,6,11.333333,0,0,6,8,5,13,0,15.5,2.8,-4.06,Graduate
1,1,1,9500,1,1,152,1,Secondary,Secondary,141,1,0,0,1,0,1,18,0,7,7,7,15.135714,0,0,8,8,8,15.2875,0,12.4,0.5,1.79,Graduate
1,1,3,9500,1,1,133.1,1,Basic,Basic,108.5,1,0,0,1,0,0,19,0,7,9,7,12.60625,0,0,8,12,6,11.9,0,12.4,0.5,1.79,Graduate
1,5,2,9070,1,1,143,1,Secondary,Secondary,146.2,1,0,0,1,1,0,18,0,6,7,5,13.2,0,0,6,6,5,11.8,0,16.2,0.3,-0.92,Graduate
6,39,1,8014,0,1,133.1,1,Basic,Secondary,114.8,0,0,0,1,0,1,41,0,6,10,5,12.833333,0,0,6,6,6,12.333333,0,13.9,-0.3,0.79,Graduate
1,1,2,9500,1,1,131,1,Secondary,Secondary,129.5,1,0,0,1,0,1,19,0,8,8,8,13.9475,0,0,8,8,8,13.9475,0,9.4,-0.8,-3.12,Graduate
1,1,1,9085,1,1,126,1,Basic,Basic,123.6,1,0,0,1,0,0,21,0,5,10,3,11.666667,0,0,5,5,5,13,0,10.8,1.4,1.74,Graduate
1,1,3,9500,1,1,137,1,Basic,Basic,131.5,1,0,0,1,0,1,20,0,8,8,8,13.38125,0,0,8,8,8,13.38125,0,9.4,-0.8,-3.12,Graduate
1,1,1,9670,1,1,141,1,Secondary,Basic,132.6,0,0,0,1,0,1,18,0,6,8,6,14,0,0,6,7,6,13.142857,0,11.1,0.6,2.02,Graduate
2,39,1,9991,0,1,120,1,Basic,Basic,138.7,0,0,0,1,1,0,43,0,5,5,5,13.8,0,0,5,6,5,13.666667,0,10.8,1.4,1.74,Graduate
1,1,5,9500,1,1,133.1,1,Secondary,Secondary,123,1,0,0,1,0,0,19,0,8,8,7,13.714286,0,0,8,8,7,13.714286,0,12.7,3.7,-1.7,Graduate
1,17,1,9500,1,1,145,1,Higher,Higher,141.8,0,0,0,1,0,0,19,0,8,8,8,13.3475,0,0,8,8,8,13.3475,0,9.4,-0.8,-3.12,Graduate
1,1,4,9556,1,1,122,1,Basic,Secondary,123.9,0,0,0,1,0,0,19,0,7,9,7,12.1625,0,0,8,8,8,13.825,0,13.9,-0.3,0.79,Graduate
1,1,1,9773,1,1,140,1,Secondary,Basic,124.6,1,0,0,1,0,0,19,0,6,7,5,14.2,0,0,6,7,6,14.571429,0,15.5,2.8,-4.06,Graduate
2,39,1,9991,0,19,133.1,1,Basic,Basic,150.3,0,0,0,1,0,0,47,0,5,5,5,14.8,0,0,5,5,5,14.4,0,7.6,2.6,0.32,Graduate
1,44,1,9003,1,39,130,1,Secondary,Higher,130,0,0,0,1,1,1,21,0,6,15,6,11.714286,0,0,6,8,4,11.75,0,13.9,-0.3,0.79,Graduate
1,17,5,9238,1,1,122,1,Basic,Basic,112.9,1,0,0,1,0,1,19,0,6,8,6,12.125,0,0,6,7,6,12.714286,0,16.2,0.3,-0.92,Graduate
1,7,1,9991,0,40,133.1,1,Secondary,Basic,100,0,0,0,1,0,0,26,8,9,11,9,12.333333,0,4,7,7,7,12.571429,0,12.4,0.5,1.79,Graduate
1,1,1,171,1,1,145,1,Higher,Secondary,149.9,1,0,0,0,0,0,19,0,0,0,0,0,0,0,0,0,0,0,0,16.2,0.3,-0.92,Graduate
1,17,1,9070,1,1,116,1,Basic,Basic,123.7,0,0,0,1,0,0,20,0,6,6,6,14.5,0,0,6,7,6,13.5,0,11.1,0.6,2.02,Graduate
2,39,1,8014,0,1,133.1,1,Basic,Secondary,144.3,0,0,0,1,1,0,41,6,10,10,10,12.5,0,3,7,7,7,12.142857,0,10.8,1.4,1.74,Graduate
1,1,2,9500,1,1,141,1,Basic,Basic,130.2,1,0,0,1,0,0,21,0,7,11,7,14.072222,0,0,8,8,8,14.0475,0,15.5,2.8,-4.06,Graduate
1,1,1,9500,1,1,140,1,Secondary,Secondary,123.5,1,0,0,1,0,1,19,0,8,8,8,14.75,0,0,8,8,8,14.75,0,9.4,-0.8,-3.12,Graduate
1,17,1,9773,1,1,161,1,Secondary,Basic,148.4,0,0,0,1,0,1,19,0,6,6,6,13.833333,0,0,6,7,6,14.428571,0,15.5,2.8,-4.06,Graduate
1,17,1,9070,1,1,139,1,Secondary,Basic,131.3,1,0,0,1,0,0,19,0,6,10,4,12,1,0,6,6,6,12.5,0,7.6,2.6,0.32,Graduate
1,1,1,171,1,1,163,1,Higher,Higher,175.6,1,0,0,1,0,0,18,0,0,0,0,0,0,0,0,0,0,0,0,11.1,0.6,2.02,Graduate
1,7,1,9853,1,40,110,1,Higher,Higher,110,0,0,1,1,0,0,40,0,7,8,7,15,0,0,7,7,7,14.571429,0,12.4,0.5,1.79,Graduate
1,17,4,9238,1,1,129,1,Basic,Basic,123.1,1,0,0,1,0,0,19,0,6,7,6,12,0,0,6,7,6,12.428571,0,11.1,0.6,2.02,Graduate
1,1,1,9238,1,1,121,1,Secondary,Secondary,115.1,1,0,0,1,0,0,19,0,6,10,6,10.833333,0,0,6,7,6,12.142857,0,11.1,0.6,2.02,Graduate
1,1,1,9070,1,1,124,1,Basic,Basic,116.3,1,0,0,1,0,0,20,0,6,8,5,12.2,0,0,6,6,6,11.5,0,16.2,0.3,-0.92,Graduate
1,17,1,9085,1,1,142,1,Higher,Basic,132.4,1,0,0,1,0,0,18,0,6,8,6,13.857143,0,0,6,15,6,13.1,0,12.4,0.5,1.79,Graduate
1,1,1,9238,1,1,136,1,Higher,Higher,126.2,0,0,0,1,1,0,22,0,6,10,5,11.4,0,0,6,8,5,11,0,10.8,1.4,1.74,Graduate
1,1,2,9085,1,1,120,1,Basic,Secondary,118.3,1,0,0,1,0,0,20,0,5,11,5,12.333333,2,0,5,7,5,12.6,0,9.4,-0.8,-3.12,Graduate
1,1,1,9238,1,1,117,1,Basic,Basic,113.2,1,0,1,1,0,0,20,0,6,8,6,10.666667,0,0,6,7,6,11.857143,0,11.1,0.6,2.02,Graduate
1,39,1,8014,0,1,120,1,Basic,Basic,108,0,0,0,1,1,1,37,1,7,9,6,11.857143,0,1,6,7,5,12,0,13.9,-0.3,0.79,Graduate
1,1,2,9670,1,1,135,1,Basic,Basic,121.4,0,0,0,1,1,0,19,0,5,7,3,12.333333,0,0,5,5,5,11.6,0,9.4,-0.8,-3.12,Graduate
1,1,6,9119,1,1,126,1,Basic,Basic,116.6,1,0,0,1,1,1,20,0,5,6,5,14,0,0,5,7,5,13.8,0,8.9,1.4,3.51,Graduate
1,1,6,9254,1,1,126,1,Basic,Basic,123.9,1,0,0,1,0,1,18,0,6,7,6,13,0,0,6,6,6,13,0,12.4,0.5,1.79,Graduate
1,42,1,9500,1,1,168,1,Basic,Secondary,133.4,1,0,0,1,0,0,23,20,26,27,26,15.077778,0,14,17,17,17,15.023529,0,15.5,2.8,-4.06,Graduate
1,1,6,9254,1,1,129,1,Basic,Basic,117.8,1,0,0,1,0,0,18,0,6,11,6,12,0,0,6,11,4,12.5,0,8.9,1.4,3.51,Graduate
1,39,1,9991,0,12,120,1,Basic,Basic,155.7,0,0,0,1,1,0,33,0,5,5,5,13.2,0,0,5,6,5,14.833333,0,10.8,1.4,1.74,Graduate
1,1,1,9085,1,1,130,1,Basic,Basic,126.9,0,0,1,1,0,0,24,0,6,8,6,13.285714,0,0,6,13,6,12.875,0,11.1,0.6,2.02,Graduate
1,1,1,9670,1,1,123,1,Secondary,Secondary,119.2,1,0,0,1,0,1,18,0,6,8,5,13.5,0,0,6,6,6,14.5,0,12.4,0.5,1.79,Graduate
1,39,1,9500,1,19,133.1,1,Basic,Basic,120,0,0,0,1,0,1,25,0,8,8,8,13.3675,0,0,8,8,8,13.3675,0,9.4,-0.8,-3.12,Graduate
1,1,6,9500,1,1,141,1,Higher,Secondary,136.3,1,0,0,1,0,0,19,0,8,8,7,14.1,0,0,8,8,7,14.1,0,10.8,1.4,1.74,Graduate
1,17,4,9500,1,1,143,1,Basic,Basic,131.5,1,0,0,1,1,1,18,0,7,8,7,12.5125,0,0,8,8,8,14.1875,0,13.9,-0.3,0.79,Graduate
1,1,1,9238,1,1,145,1,Basic,Secondary,127.9,1,0,0,1,0,0,19,0,6,7,6,13.714286,0,0,6,6,6,13.166667,0,12.7,3.7,-1.7,Graduate
4,39,1,9003,1,12,133.1,1,Basic,Basic,160,0,0,0,1,0,0,43,13,18,19,18,14.631579,0,10,13,14,13,14.230769,1,15.5,2.8,-4.06,Graduate
1,17,1,9130,1,1,131,1,Secondary,Secondary,128.2,1,0,0,1,1,0,18,0,6,7,6,14,0,0,6,8,6,13.666667,0,12.4,0.5,1.79,Graduate
2,39,1,9556,1,1,100,6,Basic,Basic,130,0,0,0,1,0,0,32,0,7,10,7,11,0,0,8,8,8,13.125,0,12.7,3.7,-1.7,Graduate
1,17,1,9773,1,1,136,1,Basic,Basic,121.7,1,0,0,1,1,1,19,0,6,9,5,12.4,0,0,6,6,6,13.166667,0,12.7,3.7,-1.7,Graduate
1,1,1,9500,1,1,150,1,Basic,Secondary,137.8,0,0,0,1,0,0,18,0,7,10,7,15.145,0,0,8,8,8,15.7425,0,15.5,2.8,-4.06,Graduate
1,18,6,9500,1,1,126,1,Basic,Basic,122.8,1,0,0,1,0,0,18,0,8,8,8,12.93375,0,0,8,8,8,12.93375,0,9.4,-0.8,-3.12,Graduate
1,7,1,9070,1,40,120,1,Secondary,Basic,120,1,0,0,1,0,0,21,9,13,14,13,13.615385,1,6,12,12,12,14.25,0,13.9,-0.3,0.79,Graduate
1,1,2,171,1,1,117,1,Basic,Basic,120.2,1,0,0,1,1,0,19,0,0,0,0,0,0,0,0,0,0,0,0,7.6,2.6,0.32,Graduate
1,1,1,9773,1,1,128,1,Basic,Basic,116.5,0,0,0,1,1,1,18,0,6,12,4,11.5,0,0,6,10,5,12.6,0,10.8,1.4,1.74,Graduate
1,1,1,9670,1,1,117,1,Secondary,Basic,113.5,1,0,0,1,0,0,20,0,5,6,4,11.5,0,0,5,5,4,10.75,0,9.4,-0.8,-3.12,Graduate
1,1,3,9556,1,1,122,1,Basic,Basic,113.3,1,0,0,1,0,1,20,0,7,7,7,13,0,0,8,8,8,15.0625,0,12.4,0.5,1.79,Graduate
1,18,2,9238,1,1,121,1,Basic,Secondary,121.4,1,0,0,1,0,1,19,0,6,8,4,10.75,0,0,6,11,5,11.5,0,15.5,2.8,-4.06,Graduate
2,44,1,9003,1,39,160,1,Basic,Basic,160,0,0,0,1,0,0,43,0,6,8,6,14.166667,0,0,6,9,6,15,0,15.5,2.8,-4.06,Graduate
1,43,1,9991,0,3,120,1,Basic,Basic,120,0,0,0,1,0,0,37,7,14,21,12,11.833333,0,11,12,15,11,11.363636,0,12.7,3.7,-1.7,Graduate
1,1,1,9500,1,1,130,1,Secondary,Basic,120,0,0,0,1,0,0,19,0,7,7,6,14.566667,0,0,7,7,6,14.566667,0,7.6,2.6,0.32,Graduate
1,1,1,9238,1,1,140,1,Secondary,Basic,140.7,0,0,0,1,0,0,19,0,6,7,6,12.285714,0,0,6,7,6,12,0,12.4,0.5,1.79,Graduate
1,18,1,9147,1,1,160,1,Basic,Basic,137.6,1,0,0,1,0,1,19,0,5,6,5,12.6,0,0,5,8,5,11.25,0,10.8,1.4,1.74,Graduate
1,17,1,9238,1,1,136,1,Basic,Secondary,129.7,0,0,0,1,0,0,19,0,6,6,6,12.166667,0,0,6,7,6,13.714286,0,15.5,2.8,-4.06,Graduate
1,17,6,9500,1,1,131,1,Higher,Basic,127.2,1,0,0,1,0,1,19,0,7,7,7,13.801429,0,0,8,8,8,14.575,0,11.1,0.6,2.02,Graduate
1,17,1,9238,1,1,137,1,Basic,Basic,131.1,1,0,0,1,0,1,18,0,6,8,6,12.833333,0,0,6,6,6,12.166667,0,8.9,1.4,3.51,Graduate
2,39,1,8014,0,1,130,1,Unknown,Unknown,114.8,0,0,0,1,0,0,44,0,6,9,6,11.166667,0,1,6,15,2,11,1,7.6,2.6,0.32,Graduate
1,1,1,171,1,1,150,1,Basic,Basic,137.8,1,0,0,1,1,1,19,0,0,0,0,0,0,0,0,0,0,0,0,13.9,-0.3,0.79,Graduate
1,1,1,9500,1,1,176,1,Higher,Basic,169.7,0,0,0,1,0,1,18,0,7,7,7,16.9,0,0,8,9,8,16.377778,0,16.2,0.3,-0.92,Graduate
1,1,2,9500,1,1,142,1,Basic,Basic,132.7,1,0,0,1,0,1,19,0,7,8,7,14.7875,0,0,8,8,8,15.8625,0,13.9,-0.3,0.79,Graduate
1,1,1,9147,1,1,158,1,Basic,Basic,130,1,0,0,1,0,0,20,0,5,8,4,11.25,0,0,5,7,5,10.4,0,7.6,2.6,0.32,Graduate
1,1,2,9085,1,1,122,1,Higher,Secondary,116.1,1,0,0,1,0,0,18,0,6,13,6,13.153846,0,0,6,12,3,11,0,15.5,2.8,-4.06,Graduate
1,39,1,8014,0,1,120,1,Basic,Basic,148.5,0,0,0,1,0,1,31,0,6,6,6,14,0,0,6,6,6,12.333333,0,10.8,1.4,1.74,Graduate
2,39,1,8014,0,1,150,1,Basic,Basic,143,0,0,0,1,0,0,40,5,9,9,9,15.888889,0,3,7,7,7,14.142857,0,12.7,3.7,-1.7,Graduate
1,42,1,9991,0,1,150,1,Basic,Basic,113.7,0,0,0,1,1,0,30,11,15,15,13,11.461538,0,6,11,15,10,11.583333,1,16.2,0.3,-0.92,Graduate
1,44,1,9991,0,39,120,1,Basic,Basic,120,1,0,0,1,0,1,23,2,6,8,5,11.8,0,2,6,8,6,12.333333,0,9.4,-0.8,-3.12,Graduate
1,1,3,9773,1,1,153,1,Higher,Secondary,137.6,1,0,0,1,0,0,18,0,6,6,6,16,0,0,6,7,6,14.333333,0,12.4,0.5,1.79,Graduate
1,39,1,9500,1,1,114,1,Basic,Basic,130,0,0,0,1,1,0,25,0,8,11,6,12.675,0,0,8,11,6,12.675,0,12.7,3.7,-1.7,Graduate
1,44,1,9003,1,39,120,1,Basic,Basic,120,1,0,0,1,1,0,19,0,6,8,6,12.142857,0,0,6,11,5,13.6,0,12.4,0.5,1.79,Graduate
1,17,3,9500,1,1,138,1,Secondary,Basic,129.3,1,0,0,1,0,1,18,0,7,8,6,13.271667,0,0,8,11,7,12.94375,0,12.4,0.5,1.79,Graduate
1,1,1,9500,1,1,141,1,Secondary,Secondary,142.8,0,0,0,1,0,0,18,0,7,7,7,13.7,0,0,8,9,8,13.994444,0,11.1,0.6,2.02,Graduate
1,17,6,9773,1,1,138,1,Secondary,Secondary,140.5,1,0,0,1,0,0,19,0,6,7,6,13,0,0,6,9,6,13.714286,0,7.6,2.6,0.32,Graduate
1,18,1,8014,0,1,138,1,Basic,Secondary,134.5,1,0,0,1,0,0,19,0,6,6,6,12.666667,0,0,6,8,6,14.375,0,12.4,0.5,1.79,Graduate
1,1,1,9085,1,1,129,1,Basic,Basic,117.5,1,0,0,1,0,0,19,0,5,9,5,13.6,1,0,5,5,5,12.4,0,12.7,3.7,-1.7,Graduate
4,43,1,9670,1,1,150,1,Basic,Basic,110,0,0,0,1,0,0,40,4,8,8,8,11.625,0,3,7,12,5,11.2,0,9.4,-0.8,-3.12,Graduate
1,44,1,9085,1,39,150,1,Higher,Higher,150,1,0,0,1,0,0,22,2,6,7,6,14.428571,0,1,6,9,5,13,0,13.9,-0.3,0.79,Graduate
1,17,2,9500,1,1,140,1,Basic,Basic,132.5,1,0,0,1,0,0,18,0,7,7,6,14.316667,0,0,7,7,6,14.316667,0,7.6,2.6,0.32,Graduate
1,17,3,9670,1,1,125,1,Secondary,Higher,117.3,1,0,0,1,0,0,18,0,6,8,6,14,0,0,6,9,5,14,0,8.9,1.4,3.51,Graduate
1,17,1,9085,1,1,120,1,Higher,Higher,116.1,0,0,0,1,0,0,20,0,5,12,3,11.666667,2,0,5,11,4,11.5,1,9.4,-0.8,-3.12,Graduate
1,1,1,9773,1,1,134,1,Basic,Basic,131.6,1,1,0,1,0,0,19,0,6,10,5,11.8,0,0,6,10,5,12,0,10.8,1.4,1.74,Graduate
2,39,1,8014,0,19,100,1,Secondary,Basic,130,0,0,1,1,0,1,33,0,6,9,5,13.833333,0,0,6,7,6,12.5,0,9.4,-0.8,-3.12,Graduate
1,18,1,9500,1,1,124,1,Basic,Basic,119.3,1,0,0,1,0,0,19,0,8,8,8,13.11625,0,0,8,8,8,13.11625,0,9.4,-0.8,-3.12,Graduate
1,39,1,9500,1,3,130,1,Higher,Higher,130,0,0,0,1,0,0,29,1,8,8,7,14.257143,0,1,8,8,7,14.257143,0,12.7,3.7,-1.7,Graduate
1,1,1,9853,1,1,122,1,Higher,Basic,112.9,0,0,0,1,0,0,18,0,7,9,7,11.857143,0,0,7,7,7,11.857143,0,16.2,0.3,-0.92,Graduate
1,1,4,9500,1,1,128,1,Secondary,Basic,117.9,1,0,0,1,0,1,19,0,7,9,7,12.1375,0,0,8,9,8,12.911111,0,12.4,0.5,1.79,Graduate
1,1,1,9500,1,1,141,1,Basic,Basic,139.8,0,0,0,1,0,1,19,0,8,8,7,14.4,0,0,8,8,7,14.4,0,12.7,3.7,-1.7,Graduate
1,1,6,9254,1,1,102,1,Higher,Secondary,101.7,1,0,0,1,1,1,21,0,6,6,6,13.5,0,0,6,6,6,12.333333,0,12.4,0.5,1.79,Graduate
1,43,1,9003,1,1,150,1,Higher,Higher,150,0,0,0,1,1,0,35,16,18,22,18,11.666667,0,12,13,13,12,11.5,1,15.5,2.8,-4.06,Graduate
1,1,3,171,1,1,145,1,Secondary,Secondary,140.1,1,0,0,1,0,0,20,6,12,12,12,13.25,0,4,11,14,11,14.333333,0,8.9,1.4,3.51,Graduate
1,18,1,9853,1,1,117,1,Basic,Basic,113.5,1,0,0,1,0,0,19,0,7,10,6,12.166667,0,0,7,9,6,13.166667,0,12.4,0.5,1.79,Graduate
2,39,1,9238,1,1,126.6,1,Basic,Basic,107.5,0,0,1,1,0,1,42,0,6,8,6,13.333333,0,0,6,7,6,15.285714,0,11.1,0.6,2.02,Graduate
1,1,1,9238,1,1,124,1,Basic,Basic,114.2,0,0,0,1,0,0,18,0,6,13,4,11,0,0,6,12,5,10.833333,0,15.5,2.8,-4.06,Graduate
1,1,1,9773,1,1,140,1,Basic,Basic,142.5,1,0,0,1,0,0,18,0,6,6,6,13.333333,0,0,6,9,5,13.2,0,9.4,-0.8,-3.12,Graduate
1,1,1,9500,1,1,126,1,Basic,Basic,123.9,0,0,0,1,0,0,19,0,7,8,6,13.296667,0,0,8,9,7,14.114286,0,11.1,0.6,2.02,Graduate
1,39,1,9500,1,40,130,1,Secondary,Secondary,190,1,0,0,1,0,0,27,1,7,7,7,14.757143,0,1,8,9,8,14.077778,0,16.2,0.3,-0.92,Graduate
1,1,6,9500,1,1,133,1,Secondary,Secondary,119.7,1,1,1,1,1,0,19,2,7,8,7,13.075,0,1,8,11,8,12.361111,0,12.4,0.5,1.79,Graduate
2,43,1,9500,1,1,137,1,Higher,Higher,115,0,0,0,1,0,0,28,0,7,8,7,14.95,0,0,8,8,8,14.7375,0,13.9,-0.3,0.79,Graduate
1,42,1,9119,1,1,150,1,Basic,Basic,133.5,1,0,0,1,1,0,21,0,5,10,5,13,0,0,5,10,5,12.6,0,9.4,-0.8,-3.12,Graduate
1,1,5,9254,1,1,131,1,Basic,Basic,123.7,0,0,0,1,0,1,19,0,6,8,5,11.666667,0,0,6,7,5,12.2,0,8.9,1.4,3.51,Graduate
1,1,2,9670,1,1,130,1,Basic,Basic,123.4,1,0,0,1,0,0,21,0,5,5,4,11.75,0,0,5,5,3,13.333333,0,9.4,-0.8,-3.12,Graduate
1,1,1,9003,1,1,133.1,1,Basic,Basic,115,0,0,1,1,1,0,21,8,12,13,12,14.538462,0,4,12,14,12,14.461538,0,15.5,2.8,-4.06,Graduate
1,1,2,9773,1,1,121,1,Secondary,Basic,118.9,1,0,0,1,0,0,20,0,6,6,6,13.333333,0,0,6,10,5,12.8,0,11.1,0.6,2.02,Graduate
1,1,1,9085,1,1,127,1,Basic,Higher,123.2,1,0,0,1,0,1,18,0,6,7,6,15.714286,0,0,6,17,5,12.777778,0,12.4,0.5,1.79,Graduate
1,17,2,9254,1,1,136,1,Basic,Basic,123.1,1,0,0,1,0,0,19,0,6,8,6,12.166667,0,0,6,6,6,13.5,0,11.1,0.6,2.02,Graduate
1,1,2,8014,0,1,107,1,Basic,Basic,103.5,1,0,0,1,0,0,22,0,6,7,5,13.4,0,0,6,9,5,12.2,0,7.6,2.6,0.32,Graduate
1,1,3,171,1,1,137,1,Secondary,Higher,133.9,1,0,0,1,1,0,19,0,0,0,0,0,0,0,0,0,0,0,0,12.7,3.7,-1.7,Graduate
1,1,2,9853,1,1,112,1,Basic,Basic,106.1,1,0,1,1,0,1,20,0,7,7,7,13.857143,0,0,7,8,7,12.571429,0,8.9,1.4,3.51,Graduate
1,1,4,9500,1,1,148,1,Secondary,Basic,132,1,0,0,1,0,0,18,0,7,7,6,13.45,0,0,7,7,6,13.45,0,7.6,2.6,0.32,Graduate
1,1,1,9147,1,1,125,1,Basic,Secondary,114.5,1,0,0,1,1,0,19,0,5,5,5,13.8,0,0,5,7,5,12.4,0,9.4,-0.8,-3.12,Graduate
1,43,1,9670,1,1,127,22,Basic,Basic,127,1,0,0,1,1,0,23,3,9,11,6,10.5,0,4,10,10,10,11.7,0,9.4,-0.8,-3.12,Graduate
1,1,3,9773,1,1,121,1,Basic,Basic,116.1,0,0,0,1,0,1,18,0,6,6,6,13.166667,0,0,6,6,6,12.166667,0,12.4,0.5,1.79,Graduate
1,17,2,9500,1,1,130,1,Basic,Basic,122.5,1,0,0,1,0,0,19,0,8,8,7,13.937143,0,0,8,8,7,13.937143,0,10.8,1.4,1.74,Graduate
1,1,1,9238,1,1,133,1,Secondary,Basic,132,0,0,0,1,1,1,20,0,6,11,5,11.142857,0,0,6,9,6,11.571429,0,16.2,0.3,-0.92,Graduate
1,17,1,9773,1,1,130,1,Basic,Basic,126.2,0,0,0,1,1,1,18,0,6,7,6,11.333333,0,0,6,8,6,12.285714,0,16.2,0.3,-0.92,Graduate
2,39,1,9254,1,19,133.1,1,Basic,Basic,156.5,0,0,0,1,1,0,53,7,11,12,2,15,7,4,9,10,3,10,4,16.2,0.3,-0.92,Graduate
1,17,1,9500,1,1,130,1,Basic,Secondary,130.4,1,0,0,1,0,1,19,0,7,7,7,13.894286,0,0,8,8,8,14.3625,0,11.1,0.6,2.02,Graduate
1,43,1,8014,0,12,114,1,Unknown,Unknown,110,0,0,0,1,0,0,29,0,6,10,6,11.666667,0,0,6,7,6,11,0,7.6,2.6,0.32,Graduate
1,1,1,9254,1,1,116,1,Basic,Basic,110.8,1,0,0,1,0,0,18,0,6,8,6,12.166667,0,0,6,6,6,13.5,0,11.1,0.6,2.02,Graduate
1,1,1,9853,1,1,142,1,Secondary,Secondary,132.6,1,0,0,1,0,0,18,0,6,8,5,15.4,0,0,6,7,5,12.2,0,7.6,2.6,0.32,Graduate
1,1,2,9085,1,1,141,1,Secondary,Basic,128.9,1,0,0,1,0,1,18,0,6,7,6,13.833333,0,0,6,10,6,13.714286,0,8.9,1.4,3.51,Graduate
1,1,6,9147,1,1,112,1,Basic,Basic,117.3,1,0,0,1,0,0,20,0,5,8,4,12,0,0,5,8,5,11.2,0,11.1,0.6,2.02,Graduate
1,44,1,9085,1,39,160,1,Secondary,Secondary,160,0,0,0,1,1,0,21,1,5,15,3,12.333333,2,0,5,7,5,11.4,0,9.4,-0.8,-3.12,Graduate
1,1,1,171,1,1,156,1,Basic,Basic,170,1,0,0,1,1,0,22,0,0,0,0,0,0,0,0,0,0,0,0,7.6,2.6,0.32,Graduate
1,1,1,171,1,1,156,1,Basic,Basic,153.6,1,0,0,1,0,0,18,0,0,0,0,0,0,0,0,0,0,0,0,9.4,-0.8,-3.12,Graduate
1,44,1,9085,1,39,150,1,Higher,Basic,150,1,0,0,1,0,0,22,1,6,9,6,13,0,1,6,18,3,12.666667,0,12.4,0.5,1.79,Graduate
1,17,4,9670,1,1,122,1,Higher,Secondary,119.6,1,0,0,1,1,0,18,0,6,8,6,13.625,0,0,6,7,6,14.285714,0,11.1,0.6,2.02,Graduate
1,1,1,9085,1,1,134,1,Basic,Basic,136.8,1,0,0,1,1,0,20,0,5,8,5,12.8,0,0,5,9,4,13.666667,1,10.8,1.4,1.74,Graduate
1,39,1,9500,1,1,130,1,Secondary,Secondary,150,0,0,0,1,1,0,24,0,8,8,7,12.742857,0,0,8,8,7,12.742857,0,12.7,3.7,-1.7,Graduate
1,44,1,9085,1,39,150,1,Basic,Basic,150,1,0,0,1,1,1,22,0,6,9,6,13.428571,0,1,6,12,6,13.625,0,12.4,0.5,1.79,Graduate
1,1,3,9070,1,1,147,1,Unknown,Basic,135.8,1,0,0,1,0,0,20,0,6,6,6,13.666667,0,0,6,6,6,13.333333,0,9.4,-0.8,-3.12,Graduate
1,39,1,9500,1,3,133.8,1,Higher,Basic,184,0,0,0,1,0,0,28,0,7,9,7,17.005556,0,1,8,9,8,16.582222,0,15.5,2.8,-4.06,Graduate
1,1,6,9773,1,1,125,1,Secondary,Secondary,122.2,0,0,0,1,1,0,19,0,6,7,5,13.6,0,0,6,8,5,12.666667,0,15.5,2.8,-4.06,Graduate
1,17,1,9773,1,1,115,1,Basic,Basic,116.1,1,0,0,1,0,1,18,0,6,7,6,13.857143,0,0,6,7,6,14.285714,0,13.9,-0.3,0.79,Graduate
1,1,2,9773,1,1,131,1,Basic,Basic,121.9,1,0,0,1,0,1,18,0,6,7,6,12.666667,0,0,6,6,6,13.333333,0,11.1,0.6,2.02,Graduate
1,17,1,9238,1,1,145,1,Secondary,Higher,129.6,0,0,0,1,0,1,19,0,6,7,6,11.333333,0,0,6,7,6,12.428571,0,11.1,0.6,2.02,Graduate
1,39,1,9003,1,1,100,1,Basic,Basic,110,0,0,0,1,0,0,41,8,12,17,12,11.833333,0,3,12,22,9,12.7,0,15.5,2.8,-4.06,Graduate
1,1,6,9500,1,1,151,1,Higher,Secondary,129.8,1,0,0,1,1,0,18,0,8,10,8,13.05375,2,0,8,10,8,13.05375,2,9.4,-0.8,-3.12,Graduate
1,1,1,9130,1,1,137,1,Higher,Basic,129.3,1,0,0,1,0,0,18,0,5,6,5,11.8,1,0,5,8,5,11.6,0,9.4,-0.8,-3.12,Graduate
2,1,1,9500,1,1,137,1,Higher,Basic,121,0,0,0,1,0,1,19,0,8,8,7,14.725714,0,0,8,8,7,14.725714,0,10.8,1.4,1.74,Graduate
1,1,3,9085,1,1,130,1,Secondary,Basic,121.3,1,0,0,1,0,1,19,0,5,6,5,14.6,0,0,5,5,5,13.8,0,10.8,1.4,1.74,Graduate
1,1,4,9500,1,1,137,1,Basic,Basic,126,1,0,0,1,0,0,19,0,7,9,7,14.283333,0,0,8,9,8,13.125556,0,15.5,2.8,-4.06,Graduate
1,39,1,8014,0,19,133.1,1,Basic,Basic,106.5,0,0,0,1,0,1,32,0,6,7,6,12.666667,0,0,6,7,6,13.333333,0,12.7,3.7,-1.7,Graduate
1,1,1,9147,1,1,131,1,Basic,Basic,130,1,0,0,1,1,0,19,0,5,5,5,12.8,0,0,5,10,5,11.444444,0,10.8,1.4,1.74,Graduate
1,17,2,9238,1,1,125,1,Basic,Basic,118,1,0,0,1,0,0,18,0,6,9,5,11,0,0,6,9,4,11.25,0,8.9,1.4,3.51,Graduate
1,17,1,9500,1,1,131,1,Higher,Basic,132.3,1,0,0,1,0,0,19,0,7,7,6,11.683333,0,0,7,7,6,11.683333,0,7.6,2.6,0.32,Graduate
1,1,1,9500,1,1,162,1,Basic,Secondary,147.5,1,0,0,1,0,1,18,0,8,8,8,14.14125,0,0,8,8,8,14.14125,0,9.4,-0.8,-3.12,Graduate
4,43,1,9991,0,1,164,1,Basic,Basic,131.8,0,0,0,1,0,0,31,7,14,19,13,11.357143,0,9,14,14,13,12,1,9.4,-0.8,-3.12,Graduate
1,7,1,8014,0,3,120,1,Basic,Basic,121.3,0,0,0,1,0,0,32,7,11,13,11,13.454545,0,5,11,13,7,12.428571,0,12.7,3.7,-1.7,Graduate
2,39,1,9991,0,1,160,1,Basic,Basic,160,0,0,0,1,0,0,35,0,5,5,5,11.6,0,0,5,6,5,11.166667,0,15.5,2.8,-4.06,Graduate
1,1,1,171,1,1,147,1,Secondary,Secondary,148.4,1,0,0,1,1,1,20,8,14,15,12,10.923077,0,7,13,14,11,12.181818,0,11.1,0.6,2.02,Graduate
1,1,5,9238,1,1,126,1,Basic,Basic,121.5,1,0,0,1,0,0,18,0,6,8,6,11.333333,0,0,6,6,6,11.666667,0,7.6,2.6,0.32,Graduate
1,1,4,9500,1,1,123,1,Secondary,Secondary,113.6,1,0,0,1,0,0,21,0,7,8,7,14.69625,0,0,8,9,8,14.622222,0,12.4,0.5,1.79,Graduate
1,42,1,9085,1,1,100,1,Secondary,Basic,100,1,0,0,1,0,1,20,1,2,2,2,12,0,1,6,11,6,12.833333,0,13.9,-0.3,0.79,Graduate
1,44,1,9070,1,39,130,1,Secondary,Secondary,130,1,0,0,1,0,0,19,2,7,11,6,12,0,5,9,9,8,12.75,0,16.2,0.3,-0.92,Graduate
1,1,2,9238,1,1,136,1,Basic,Basic,139.2,1,0,0,1,0,0,18,0,6,7,6,13.833333,0,0,6,6,6,14,0,9.4,-0.8,-3.12,Graduate
1,1,3,9500,1,1,137,1,Basic,Basic,122.7,1,0,0,1,0,1,18,0,7,8,7,13.778571,0,0,8,10,8,13.122222,0,16.2,0.3,-0.92,Graduate
1,1,1,171,1,1,138,1,Secondary,Secondary,141.5,0,0,0,1,1,0,19,0,0,0,0,0,0,0,0,0,0,0,0,7.6,2.6,0.32,Graduate
1,1,1,9130,1,1,130,1,Higher,Basic,133,1,0,0,1,0,0,19,0,6,6,6,14.666667,0,0,6,8,6,13.666667,0,12.4,0.5,1.79,Graduate
2,39,2,9147,1,1,130,1,Basic,Basic,140,0,0,0,1,1,0,34,0,5,10,3,11.666667,1,0,5,7,4,12.75,0,9.4,-0.8,-3.12,Graduate
1,17,1,171,1,1,125,1,Secondary,Secondary,143.9,1,0,0,1,0,0,20,0,0,0,0,0,0,0,0,0,0,0,0,15.5,2.8,-4.06,Dropout_Enrolled
1,17,1,171,1,1,123,1,Higher,Secondary,116.4,1,0,1,1,1,0,19,0,0,0,0,0,0,0,0,0,0,0,0,10.8,1.4,1.74,Dropout_Enrolled
1,39,1,9238,1,19,133.1,1,Basic,Basic,120,0,1,1,1,0,0,40,0,6,13,2,10,0,0,6,10,1,15,0,16.2,0.3,-0.92,Dropout_Enrolled
1,1,1,171,1,1,114,1,Higher,Basic,111.9,0,0,0,0,1,0,18,0,0,0,0,0,0,0,0,0,0,0,0,9.4,-0.8,-3.12,Dropout_Enrolled
1,39,1,9991,0,1,133.1,1,Basic,Secondary,151.2,0,0,0,1,1,0,25,0,5,11,4,11.5,0,0,5,11,3,13.5,0,12.4,0.5,1.79,Dropout_Enrolled
1,1,4,9147,1,1,117,1,Secondary,Basic,117,1,0,0,1,1,0,19,0,5,5,4,10.75,0,0,5,6,4,12.25,0,12.4,0.5,1.79,Dropout_Enrolled
1,17,1,9119,1,1,141,1,Basic,Secondary,133,1,0,0,1,1,0,18,0,5,10,4,13,0,0,5,10,3,12.333333,3,7.6,2.6,0.32,Dropout_Enrolled
1,17,1,9500,1,1,141,1,Higher,Basic,135.4,1,0,0,1,0,0,18,0,7,9,7,12.50625,0,0,8,15,5,13.2,0,13.9,-0.3,0.79,Dropout_Enrolled
1,17,2,9254,1,1,125,1,Basic,Basic,122.6,1,0,1,0,0,0,20,0,6,8,4,11.75,0,0,6,6,6,13.166667,0,11.1,0.6,2.02,Dropout_Enrolled
1,43,1,9130,1,1,100,41,Higher,Higher,100,0,0,0,1,0,0,19,0,5,10,5,14.857143,2,0,5,7,5,15.142857,0,9.4,-0.8,-3.12,Dropout_Enrolled
1,42,1,9003,1,39,140,1,Basic,Secondary,140,0,0,0,1,0,0,22,0,6,10,6,12.571429,0,0,6,12,4,13.666667,0,15.5,2.8,-4.06,Dropout_Enrolled
1,1,1,171,1,1,133.1,1,Secondary,Basic,118,0,0,0,1,1,0,22,0,0,0,0,0,0,0,0,0,0,0,0,11.1,0.6,2.02,Dropout_Enrolled
1,39,2,9147,1,1,120,1,Basic,Basic,104,0,0,0,0,1,0,26,0,5,8,1,10,0,0,5,9,1,10,0,10.8,1.4,1.74,Dropout_Enrolled
1,51,1,9147,1,1,130,1,Secondary,Secondary,120,0,0,0,1,0,0,21,0,5,9,5,12.8,0,0,5,11,3,12.666667,0,11.1,0.6,2.02,Dropout_Enrolled
1,1,1,9147,1,1,115,1,Basic,Secondary,118.5,0,0,0,1,1,0,21,0,5,9,1,10,0,0,5,10,1,10,0,7.6,2.6,0.32,Dropout_Enrolled
1,43,1,9991,0,1,161,1,Basic,Basic,100,1,0,0,1,0,0,27,0,5,5,0,0,0,0,5,5,0,0,0,7.6,2.6,0.32,Dropout_Enrolled
1,1,1,9085,1,1,132,1,Higher,Higher,128.5,0,0,0,1,0,0,18,0,6,11,5,12.285714,0,0,6,19,3,14,1,12.4,0.5,1.79,Dropout_Enrolled
1,1,1,9670,1,1,120,1,Basic,Basic,115.1,0,0,0,1,0,0,19,0,6,8,3,11.666667,0,0,6,11,5,13.625,0,10.8,1.4,1.74,Dropout_Enrolled
1,7,2,9085,1,3,130,1,Higher,Higher,130,0,0,0,0,0,0,28,0,5,9,1,12,1,0,4,10,0,0,4,10.8,1.4,1.74,Dropout_Enrolled
1,7,1,9500,1,3,140,1,Unknown,Unknown,140,0,0,0,1,0,0,28,0,7,0,0,0,0,0,8,0,0,0,0,7.6,2.6,0.32,Dropout_Enrolled
1,17,1,9773,1,1,145,1,Secondary,Basic,132.8,1,0,0,0,1,0,21,0,6,10,2,12,0,0,6,0,0,0,0,10.8,1.4,1.74,Dropout_Enrolled
1,7,1,9070,1,3,133.1,1,Higher,Higher,120,1,0,0,1,0,0,32,0,3,3,2,16,0,0,3,3,1,16,0,7.6,2.6,0.32,Dropout_Enrolled
1,1,3,9500,1,1,143,1,Basic,Basic,133.8,1,0,0,1,0,0,18,0,8,8,8,14.26875,0,0,8,8,8,14.26875,0,9.4,-0.8,-3.12,Dropout_Enrolled
1,44,1,9070,1,39,120,1,Secondary,Basic,119.8,0,0,0,1,1,0,21,2,7,7,2,12,0,5,9,10,7,12.142857,0,12.4,0.5,1.79,Dropout_Enrolled
1,39,1,9556,1,1,133.1,6,Higher,Higher,169.2,0,0,1,0,0,0,54,0,7,7,0,0,0,0,5,10,0,0,0,12.4,0.5,1.79,Dropout_Enrolled
1,1,3,9254,1,1,115,1,Secondary,Secondary,117.5,1,0,0,1,0,0,18,0,6,9,4,11.25,0,0,6,13,2,12.5,0,9.4,-0.8,-3.12,Dropout_Enrolled
1,17,1,9853,1,1,135,1,Higher,Higher,132.9,1,0,0,0,0,0,29,0,6,9,6,16.333333,0,0,6,8,5,15.6,0,12.7,3.7,-1.7,Dropout_Enrolled
1,17,1,9119,1,1,126,1,Secondary,Secondary,116.2,0,0,1,0,1,0,21,0,5,9,2,11,0,0,5,8,2,11.5,2,7.6,2.6,0.32,Dropout_Enrolled
1,17,3,9147,1,1,125,1,Basic,Basic,125.7,0,0,0,1,0,0,20,0,5,7,5,11.166667,0,0,5,9,4,10.75,0,15.5,2.8,-4.06,Dropout_Enrolled
1,17,1,171,1,1,146,1,Secondary,Basic,135.5,1,0,1,1,0,0,22,12,17,19,12,11.833333,0,10,17,22,11,11.25,0,11.1,0.6,2.02,Dropout_Enrolled
1,7,1,9991,0,40,130,1,Basic,Basic,130,0,0,0,1,1,0,38,10,10,10,10,13.6,0,5,10,10,5,13.6,0,8.9,1.4,3.51,Dropout_Enrolled
1,1,1,9085,1,1,123,1,Higher,Secondary,112.9,0,0,0,1,1,0,18,0,5,5,0,0,0,0,5,5,0,0,0,7.6,2.6,0.32,Dropout_Enrolled
1,1,6,9119,1,1,135,1,Higher,Secondary,123.5,1,0,0,1,1,0,18,0,5,10,0,0,0,0,5,10,1,10,3,7.6,2.6,0.32,Dropout_Enrolled
1,1,1,171,1,1,124,1,Secondary,Basic,113.9,1,1,0,1,0,0,19,0,0,0,0,0,0,0,0,0,0,0,0,13.9,-0.3,0.79,Dropout_Enrolled
1,1,5,9070,1,1,123,1,Higher,Secondary,121.3,1,0,0,1,0,0,20,0,6,6,6,11.166667,0,0,6,9,6,11.5,0,12.4,0.5,1.79,Dropout_Enrolled
1,39,1,9003,1,1,110,1,Basic,Basic,120,0,0,1,0,1,0,31,0,6,15,1,11,0,0,6,10,0,0,0,16.2,0.3,-0.92,Dropout_Enrolled
2,39,1,9085,1,12,133.1,1,Secondary,Secondary,140,1,0,1,0,0,0,32,0,6,7,0,0,0,0,6,6,0,0,0,13.9,-0.3,0.79,Dropout_Enrolled
1,17,5,171,1,1,122,1,Basic,Secondary,127.3,1,0,0,1,1,0,20,0,0,0,0,0,0,0,0,0,0,0,0,10.8,1.4,1.74,Dropout_Enrolled
1,1,2,9238,1,1,145,1,Secondary,Basic,121.4,0,0,0,1,0,0,20,0,6,13,0,0,0,0,5,11,0,0,0,9.4,-0.8,-3.12,Dropout_Enrolled
1,1,1,9130,1,1,144,1,Higher,Secondary,134.9,1,0,1,1,0,0,18,0,6,13,6,10.857143,0,0,6,10,4,11,0,15.5,2.8,-4.06,Dropout_Enrolled
4,39,1,9991,0,1,130,1,Basic,Basic,127.6,0,0,0,1,1,0,29,0,5,5,0,0,0,0,5,5,0,0,0,7.6,2.6,0.32,Dropout_Enrolled
1,39,1,9254,1,1,133.1,1,Basic,Secondary,101,0,0,1,1,0,0,25,0,6,6,0,0,0,0,6,6,0,0,0,15.5,2.8,-4.06,Dropout_Enrolled
1,1,1,9147,1,1,124,1,Basic,Basic,115.6,1,0,0,0,1,0,20,0,5,9,3,12,1,0,5,7,3,11,0,9.4,-0.8,-3.12,Dropout_Enrolled
1,17,2,9070,1,1,142,1,Higher,Secondary,141,1,0,0,1,1,0,18,0,6,6,6,13,0,0,6,8,1,10,0,10.8,1.4,1.74,Dropout_Enrolled
1,39,1,9670,1,1,120,1,Unknown,Unknown,104,1,0,0,1,0,0,24,0,5,10,3,13,0,0,5,11,3,11.333333,0,7.6,2.6,0.32,Dropout_Enrolled
1,43,2,9147,1,1,131,1,Basic,Basic,123.7,1,0,0,1,0,0,18,0,5,10,1,14,0,0,5,10,1,14,0,7.6,2.6,0.32,Dropout_Enrolled
1,39,1,9085,1,12,133.1,1,Unknown,Unknown,128.2,0,0,1,0,1,0,27,0,5,5,0,0,0,0,5,5,0,0,0,7.6,2.6,0.32,Dropout_Enrolled
1,39,1,9003,1,19,133.1,1,Basic,Basic,110,0,0,1,0,0,0,40,0,6,12,5,12.8,0,0,6,16,3,13.333333,0,11.1,0.6,2.02,Dropout_Enrolled
1,39,1,9991,0,1,100,1,Basic,Basic,121.9,0,0,0,0,0,0,40,0,4,4,0,0,0,0,5,0,0,0,0,12.7,3.7,-1.7,Dropout_Enrolled
2,39,1,9991,0,1,133.1,1,Basic,Basic,140,0,0,1,1,1,0,37,0,5,10,4,10.75,0,0,5,12,3,13.333333,0,9.4,-0.8,-3.12,Dropout_Enrolled
1,1,1,9500,1,1,136,1,Higher,Higher,120,1,0,0,1,1,0,18,0,7,8,6,11.833333,0,0,7,8,6,11.833333,0,7.6,2.6,0.32,Dropout_Enrolled
1,17,1,9147,1,1,133.1,1,Basic,Basic,100,0,0,0,1,1,0,21,0,5,7,4,10.75,0,0,5,10,2,11,3,16.2,0.3,-0.92,Dropout_Enrolled
2,39,1,9773,1,19,100,1,Basic,Basic,163.5,0,0,1,0,1,0,50,0,6,7,1,15,0,0,5,12,0,0,0,10.8,1.4,1.74,Dropout_Enrolled
1,1,1,9991,0,1,122,1,Basic,Basic,113.6,0,0,0,1,1,0,26,0,5,11,2,11.5,0,0,5,10,3,12,0,7.6,2.6,0.32,Dropout_Enrolled
1,17,1,9254,1,1,132,1,Basic,Basic,126.1,0,0,0,1,1,0,20,0,6,9,4,10.75,0,0,6,12,0,0,0,7.6,2.6,0.32,Dropout_Enrolled
1,17,1,9070,1,1,134,1,Secondary,Secondary,133.3,1,0,0,1,1,0,18,0,6,7,5,10.8,1,0,6,6,0,0,0,7.6,2.6,0.32,Dropout_Enrolled
1,44,1,9003,1,39,160,1,Basic,Basic,160,1,0,0,0,1,0,30,4,9,18,6,11.833333,0,1,8,21,4,11,0,15.5,2.8,-4.06,Dropout_Enrolled
1,1,1,9254,1,1,125,1,Secondary,Higher,121.9,1,0,0,1,1,0,18,0,6,15,3,11.666667,0,0,6,14,2,12.5,0,10.8,1.4,1.74,Dropout_Enrolled
5,39,1,9119,1,1,120,1,Basic,Basic,116,0,0,1,1,1,1,34,0,5,14,1,17,0,0,5,10,2,11,0,9.4,-0.8,-3.12,Dropout_Enrolled
2,7,1,9130,1,3,140,1,Higher,Higher,140,0,0,1,0,0,0,29,7,9,16,7,11.555556,4,5,7,12,5,13.2,2,7.6,2.6,0.32,Dropout_Enrolled
1,17,1,9254,1,1,127,1,Secondary,Secondary,126.7,1,0,0,0,1,0,22,0,1,1,0,0,0,0,6,0,0,0,0,12.4,0.5,1.79,Dropout_Enrolled
1,44,1,9003,1,39,140,1,Basic,Basic,140,0,0,0,1,1,0,20,0,6,12,3,11.5,0,0,6,12,3,13.666667,0,12.4,0.5,1.79,Dropout_Enrolled
1,39,1,9991,0,1,133.1,1,Basic,Basic,111,0,0,0,0,1,0,28,0,5,0,0,0,0,0,5,0,0,0,0,8.9,1.4,3.51,Dropout_Enrolled
1,39,1,9500,1,1,148,1,Higher,Basic,130,0,0,0,1,0,0,24,0,8,12,7,12.714286,0,0,8,12,7,12.714286,0,12.7,3.7,-1.7,Dropout_Enrolled
1,17,4,9070,1,1,125,1,Secondary,Higher,128.9,0,0,0,1,0,1,18,0,6,9,5,11.6,0,0,6,8,4,11.2,0,8.9,1.4,3.51,Dropout_Enrolled
1,39,1,9500,1,1,130,1,Basic,Basic,120,1,0,0,1,0,1,25,0,8,11,7,13.29,3,0,8,11,7,13.29,3,9.4,-0.8,-3.12,Dropout_Enrolled
1,39,1,9003,1,1,100,1,Secondary,Higher,120,0,0,1,0,1,0,44,2,7,14,4,12,2,0,6,16,0,0,1,15.5,2.8,-4.06,Dropout_Enrolled
1,17,1,9670,1,1,140,1,Secondary,Secondary,133.4,0,0,0,1,1,0,24,0,6,6,4,11.25,0,0,6,9,4,10.428571,0,10.8,1.4,1.74,Dropout_Enrolled
1,17,4,9119,1,1,127,1,Basic,Basic,120.4,1,0,1,0,1,0,18,0,5,12,0,0,0,0,5,8,0,0,0,9.4,-0.8,-3.12,Dropout_Enrolled
1,43,1,9670,1,1,134,1,Secondary,Basic,120.7,0,0,1,0,0,0,19,0,6,13,3,10.666667,0,0,6,6,4,12.25,0,15.5,2.8,-4.06,Dropout_Enrolled
1,17,1,9147,1,1,126,1,Basic,Basic,116.9,0,0,0,1,1,1,19,0,5,12,3,11.666667,0,0,5,10,3,11.666667,0,12.7,3.7,-1.7,Dropout_Enrolled
1,17,1,9500,1,1,137,1,Secondary,Secondary,127.9,1,0,0,1,0,1,18,0,7,10,5,13.46,0,0,7,8,7,12.2375,0,11.1,0.6,2.02,Dropout_Enrolled
1,42,1,9003,1,1,140,1,Basic,Basic,140,1,0,0,1,1,0,25,0,6,14,5,11.666667,0,0,6,11,4,12,0,15.5,2.8,-4.06,Dropout_Enrolled
1,17,2,9147,1,1,133.1,1,Basic,Basic,109,1,0,0,1,1,1,22,0,5,7,3,12.333333,0,0,5,9,3,10.571429,0,10.8,1.4,1.74,Dropout_Enrolled
1,51,1,9147,1,1,135,1,Secondary,Secondary,118.5,0,0,0,1,0,0,25,0,5,12,2,10.5,0,0,5,5,0,0,0,11.1,0.6,2.02,Dropout_Enrolled
1,39,1,9003,1,1,130,1,Basic,Basic,150,0,0,1,0,1,0,28,5,11,14,11,15.090909,0,5,10,11,10,15,0,11.1,0.6,2.02,Dropout_Enrolled
2,39,1,9991,0,9,133.1,1,Unknown,Unknown,118.4,0,0,0,0,0,0,39,0,5,5,0,0,0,0,5,5,0,0,0,7.6,2.6,0.32,Dropout_Enrolled
1,1,1,9254,1,1,128,1,Basic,Basic,127,0,0,0,1,0,0,19,0,6,6,6,12,0,0,6,7,4,12.75,0,12.4,0.5,1.79,Dropout_Enrolled
1,1,1,9147,1,1,143,1,Secondary,Basic,135,1,0,0,1,0,0,21,0,5,8,4,11,0,0,5,8,5,12,0,7.6,2.6,0.32,Dropout_Enrolled
2,39,1,8014,0,1,120,1,Unknown,Unknown,104,0,0,0,1,0,0,54,0,6,8,4,12.75,0,0,6,12,5,12.6,0,7.6,2.6,0.32,Dropout_Enrolled
2,39,2,9991,0,1,100,1,Basic,Basic,100,1,0,0,1,1,0,51,0,4,4,0,0,0,0,5,0,0,0,0,12.7,3.7,-1.7,Dropout_Enrolled
1,17,3,171,1,1,125,1,Higher,Secondary,117,1,1,0,1,1,0,22,0,0,0,0,0,0,0,0,0,0,0,0,10.8,1.4,1.74,Dropout_Enrolled
4,39,1,9500,1,1,133.1,1,Secondary,Basic,154.3,0,0,0,1,0,0,32,0,7,0,0,0,0,0,8,0,0,0,0,12.4,0.5,1.79,Dropout_Enrolled
1,44,1,9130,1,39,120,1,Basic,Basic,120,1,0,1,0,0,0,19,2,6,7,5,11.6,0,1,6,12,2,11,0,12.4,0.5,1.79,Dropout_Enrolled
2,39,1,9991,0,1,100,1,Basic,Basic,113,0,0,0,1,1,1,41,0,5,9,4,11,0,0,5,6,5,11.4,0,8.9,1.4,3.51,Dropout_Enrolled
1,1,4,9500,1,1,140,1,Secondary,Basic,127.5,0,0,0,1,0,0,18,0,7,0,0,0,0,0,8,0,0,0,0,12.7,3.7,-1.7,Dropout_Enrolled
1,17,4,9773,1,1,119,1,Basic,Basic,118.3,0,0,0,1,0,0,19,0,6,8,4,11.25,0,0,6,0,0,0,0,15.5,2.8,-4.06,Dropout_Enrolled
1,17,1,9238,1,1,136,1,Basic,Basic,140.9,1,0,0,1,1,0,18,0,6,10,4,12,0,0,6,7,5,11.8,0,9.4,-0.8,-3.12,Dropout_Enrolled
1,39,1,8014,0,1,133.1,1,Basic,Basic,121,0,0,1,0,0,0,44,2,8,12,4,12,2,2,7,9,4,12,2,8.9,1.4,3.51,Dropout_Enrolled
1,1,1,9773,1,1,117,1,Secondary,Basic,109.3,0,0,0,1,1,0,19,0,6,11,4,12.25,0,0,6,10,3,12.666667,0,7.6,2.6,0.32,Dropout_Enrolled
2,39,1,9991,0,1,130,1,Basic,Basic,127.8,0,0,0,1,1,0,37,0,5,7,4,10.75,0,0,5,7,3,11.333333,0,7.6,2.6,0.32,Dropout_Enrolled
1,42,1,9853,1,1,120,1,Basic,Basic,113.7,0,0,0,1,0,0,20,0,6,8,5,11,0,0,6,10,3,10.666667,0,12.7,3.7,-1.7,Dropout_Enrolled
1,44,1,9085,1,39,140,1,Secondary,Secondary,140,1,0,0,1,0,0,20,1,6,9,6,12.666667,0,1,6,10,4,11.5,0,13.9,-0.3,0.79,Dropout_Enrolled
4,39,1,8014,0,19,133.1,1,Basic,Basic,110,0,0,0,0,0,0,31,0,6,8,5,11.4,0,0,6,9,3,11,0,9.4,-0.8,-3.12,Dropout_Enrolled
2,39,1,9085,1,19,110,1,Basic,Basic,110,0,0,0,0,1,0,29,0,5,5,0,0,0,0,5,5,0,0,0,12.7,3.7,-1.7,Dropout_Enrolled
1,1,2,9853,1,1,124,1,Basic,Basic,118.1,1,0,0,0,0,0,18,0,6,11,3,13,0,0,6,10,5,11.8,0,9.4,-0.8,-3.12,Dropout_Enrolled
1,16,1,9085,1,1,150,1,Higher,Higher,153.5,1,0,0,1,0,0,19,0,6,7,6,15.714286,0,0,6,6,6,14.666667,0,13.9,-0.3,0.79,Dropout_Enrolled
1,39,1,9991,0,1,120,1,Basic,Secondary,123.2,0,0,0,1,0,0,27,0,5,9,3,10.666667,0,0,5,7,4,11.4,0,10.8,1.4,1.74,Dropout_Enrolled
1,1,1,171,1,1,133.1,1,Basic,Basic,128.2,1,0,0,1,1,1,19,6,12,12,12,13.333333,0,4,11,15,10,12.818182,0,8.9,1.4,3.51,Dropout_Enrolled
1,1,5,9670,1,1,133.1,1,Secondary,Secondary,133,1,0,0,1,0,0,19,0,6,0,0,0,0,0,6,0,0,0,0,7.6,2.6,0.32,Dropout_Enrolled
1,1,4,9500,1,1,118,1,Basic,Basic,110,1,0,0,1,0,0,19,0,7,12,4,12.85,0,0,7,7,7,12.621429,0,11.1,0.6,2.02,Dropout_Enrolled
1,42,1,9853,1,1,120,1,Secondary,Basic,111.3,0,0,0,1,0,0,24,9,13,17,10,11.5,0,7,13,18,9,10.444444,0,16.2,0.3,-0.92,Dropout_Enrolled
1,39,1,9991,0,1,130,1,Basic,Basic,120,0,0,0,1,0,0,27,0,5,12,5,10.6,0,0,5,10,5,11,0,9.4,-0.8,-3.12,Dropout_Enrolled
2,39,1,9670,1,1,130,1,Basic,Basic,162.3,0,0,0,1,1,0,36,0,6,13,3,11.333333,0,0,6,12,5,11.4,0,13.9,-0.3,0.79,Dropout_Enrolled
1,7,1,9085,1,3,150,1,Basic,Basic,140,0,0,0,1,1,0,24,3,5,10,3,14.666667,1,0,5,5,0,0,0,7.6,2.6,0.32,Dropout_Enrolled
1,1,6,9500,1,1,126,1,Secondary,Basic,121.8,1,0,0,1,0,0,19,0,7,8,6,13.731667,0,0,8,10,7,13.771429,0,12.4,0.5,1.79,Dropout_Enrolled
1,17,1,9130,1,1,117,1,Basic,Basic,113.5,1,0,0,1,0,0,19,0,6,8,6,11.333333,0,0,6,12,4,13.75,0,8.9,1.4,3.51,Dropout_Enrolled
1,1,6,9773,1,1,145,1,Secondary,Basic,131,1,0,0,1,0,1,18,0,6,6,6,12.166667,0,0,6,10,5,11.2,0,7.6,2.6,0.32,Dropout_Enrolled
1,39,1,9238,1,1,140,1,Unknown,Unknown,114,1,0,0,0,0,0,28,0,6,11,1,13,0,0,6,12,0,0,0,9.4,-0.8,-3.12,Dropout_Enrolled
1,17,1,9991,0,1,120,1,Basic,Higher,116.9,1,0,1,0,0,0,26,0,5,5,0,0,0,0,5,6,0,0,0,10.8,1.4,1.74,Dropout_Enrolled
2,43,1,9991,0,2,120,1,Basic,Basic,120,0,0,0,1,0,0,36,8,12,21,11,11.5,0,7,12,22,12,11.4375,0,9.4,-0.8,-3.12,Dropout_Enrolled
1,42,1,9119,1,1,140,1,Basic,Basic,120,0,0,1,0,1,0,31,0,4,4,0,0,0,0,5,5,0,0,0,12.7,3.7,-1.7,Dropout_Enrolled
1,1,1,9853,1,1,163,1,Basic,Secondary,146.6,1,0,1,1,0,0,18,0,6,9,5,13.6,0,0,6,10,4,11.75,0,9.4,-0.8,-3.12,Dropout_Enrolled
1,39,1,9003,1,1,133.1,1,Basic,Basic,130,0,0,1,1,0,1,30,0,6,6,0,0,0,0,6,6,0,0,0,11.1,0.6,2.02,Dropout_Enrolled
1,43,2,9119,1,1,115,1,Basic,Basic,112.2,1,0,1,1,1,0,18,0,5,9,2,10,0,0,5,9,0,0,0,15.5,2.8,-4.06,Dropout_Enrolled
1,39,1,9085,1,19,133.1,1,Basic,Basic,140,0,0,1,0,0,0,24,2,6,11,3,11.75,0,1,6,14,3,10.333333,0,16.2,0.3,-0.92,Dropout_Enrolled
2,43,1,9991,0,1,130,1,Basic,Basic,110,1,0,0,1,0,0,38,4,10,14,4,10.75,0,2,10,10,2,10,0,7.6,2.6,0.32,Dropout_Enrolled
1,17,1,9238,1,1,140,1,Secondary,Higher,124.6,1,0,1,0,1,0,20,3,9,9,3,13.333333,0,2,6,6,2,12.5,0,8.9,1.4,3.51,Dropout_Enrolled
1,1,1,9500,1,1,168,1,Secondary,Secondary,161,1,0,0,1,1,0,18,0,7,7,7,16.142857,0,0,8,9,0,0,0,16.2,0.3,-0.92,Dropout_Enrolled
1,17,1,9085,1,1,125,1,Secondary,Basic,118.4,1,0,0,1,0,0,21,0,5,13,3,11.333333,2,0,5,12,2,10.5,1,9.4,-0.8,-3.12,Dropout_Enrolled
1,1,5,9147,1,1,132,1,Secondary,Secondary,127.8,1,0,0,0,1,0,18,0,5,0,0,0,0,0,5,0,0,0,0,11.1,0.6,2.02,Dropout_Enrolled
1,39,1,33,1,1,130,1,Basic,Basic,102.5,0,0,1,0,1,0,37,0,7,7,0,0,0,0,7,7,1,10,0,8.9,1.4,3.51,Dropout_Enrolled
1,1,1,9119,1,1,132,1,Secondary,Secondary,133.1,1,0,0,1,1,0,19,0,5,7,3,12,0,0,6,10,2,10.5,0,11.1,0.6,2.02,Dropout_Enrolled
1,1,4,9670,1,1,130,1,Secondary,Secondary,124.1,1,0,0,1,0,0,18,0,6,6,6,14.166667,0,0,6,7,6,13.428571,0,8.9,1.4,3.51,Dropout_Enrolled
1,39,1,9991,0,1,160,41,Basic,Basic,160,0,0,0,1,0,1,31,0,5,13,4,10.5,0,0,5,10,4,10.5,0,15.5,2.8,-4.06,Dropout_Enrolled
1,1,2,9119,1,1,140,1,Basic,Basic,125.7,1,0,0,1,1,0,18,0,5,5,0,0,0,0,5,5,0,0,0,9.4,-0.8,-3.12,Dropout_Enrolled
1,1,6,9773,1,1,133.1,1,Secondary,Basic,100,1,0,1,0,0,0,20,0,4,4,0,0,0,0,5,5,0,0,0,12.4,0.5,1.79,Dropout_Enrolled
1,17,2,9254,1,1,115,1,Basic,Basic,113.3,1,0,1,1,0,0,21,0,6,0,0,0,0,0,6,0,0,0,0,11.1,0.6,2.02,Dropout_Enrolled
1,1,2,9773,1,1,129,1,Basic,Basic,117.1,1,0,0,1,0,0,20,0,6,12,1,17,0,0,6,12,1,17,0,9.4,-0.8,-3.12,Dropout_Enrolled
1,39,1,9500,1,19,133.1,1,Basic,Basic,120,0,0,0,0,0,1,39,0,7,14,3,11.5,0,0,7,9,2,10.5,0,16.2,0.3,-0.92,Dropout_Enrolled
1,39,1,9500,1,1,133.1,1,Secondary,Basic,100,0,0,0,1,1,0,28,0,7,11,3,11.916667,1,0,7,17,0,0,0,16.2,0.3,-0.92,Dropout_Enrolled
4,39,1,9991,0,1,133.1,1,Basic,Basic,138.7,0,0,0,1,0,0,31,0,5,7,3,10.333333,0,0,5,6,3,12,0,10.8,1.4,1.74,Dropout_Enrolled
1,44,1,9119,1,39,130,1,Higher,Basic,130,0,0,0,1,1,0,20,0,5,12,1,13,0,0,5,8,3,12.6,0,12.4,0.5,1.79,Dropout_Enrolled
1,39,1,9003,1,19,133.1,1,Basic,Basic,130,0,0,0,1,0,0,44,0,6,10,1,12,0,0,6,6,0,0,0,11.1,0.6,2.02,Dropout_Enrolled
1,16,1,171,1,1,150,1,Basic,Basic,134.6,1,0,0,1,1,0,19,0,0,0,0,0,0,0,0,0,0,0,0,7.6,2.6,0.32,Dropout_Enrolled
1,39,1,9119,1,1,139,1,Basic,Basic,110.3,0,0,1,1,1,0,24,0,5,12,1,10,0,0,5,11,1,11,0,8.9,1.4,3.51,Dropout_Enrolled
1,43,4,9670,1,1,117,1,Higher,Higher,113.2,0,0,0,1,1,0,21,0,5,11,2,10,0,0,5,10,3,10.333333,0,9.4,-0.8,-3.12,Dropout_Enrolled
1,39,1,9119,1,19,133.1,1,Basic,Basic,100.9,1,0,0,1,1,0,24,0,5,9,1,12,0,0,5,6,3,10.5,0,10.8,1.4,1.74,Dropout_Enrolled
1,1,5,9773,1,1,125,1,Basic,Higher,126.1,1,0,0,1,1,0,22,0,6,10,5,13.4,0,0,6,12,3,10.666667,0,9.4,-0.8,-3.12,Dropout_Enrolled
1,7,1,9500,1,3,120,1,Basic,Basic,120,0,0,1,0,0,0,28,0,7,7,0,0,7,0,7,7,0,0,7,13.9,-0.3,0.79,Dropout_Enrolled
1,17,6,9147,1,1,120,1,Basic,Basic,115.5,1,0,1,0,1,0,19,0,5,8,4,12.5,0,0,5,9,5,10.5,0,8.9,1.4,3.51,Dropout_Enrolled
1,43,3,9147,1,1,127,21,Higher,Basic,117.9,1,0,0,1,0,0,22,0,5,8,1,10,0,0,5,8,2,13,0,7.6,2.6,0.32,Dropout_Enrolled
1,1,1,171,1,1,138,1,Basic,Basic,130.7,1,0,0,1,0,0,18,0,0,0,0,0,0,0,0,0,0,0,0,13.9,-0.3,0.79,Dropout_Enrolled
2,7,1,9254,1,2,100,1,Basic,Basic,100,0,0,0,0,0,0,37,0,5,5,0,0,0,0,5,10,0,0,0,10.8,1.4,1.74,Dropout_Enrolled
1,1,1,9254,1,1,115,1,Basic,Secondary,113.6,0,0,0,1,1,0,23,0,6,10,6,13,0,0,6,9,6,12,0,11.1,0.6,2.02,Dropout_Enrolled
1,1,1,9147,1,1,130,1,Basic,Basic,118.8,0,0,1,1,1,1,22,0,5,8,5,10.666667,0,0,5,11,2,11,0,15.5,2.8,-4.06,Dropout_Enrolled
1,17,1,9130,1,1,132,1,Higher,Secondary,127.8,0,0,0,1,1,0,18,0,6,9,6,12,0,0,6,10,5,12.166667,0,11.1,0.6,2.02,Dropout_Enrolled
1,1,1,9853,1,1,133.1,1,Basic,Basic,97,1,0,0,1,0,0,23,0,6,9,5,11.6,0,0,6,9,3,11,0,12.7,3.7,-1.7,Dropout_Enrolled
1,7,1,9147,1,3,130,1,Basic,Basic,130,0,0,0,1,0,0,25,0,5,0,0,0,0,0,5,0,0,0,0,12.7,3.7,-1.7,Dropout_Enrolled
1,17,1,9238,1,1,126,1,Basic,Basic,116.9,1,0,0,1,0,0,21,0,6,11,6,10.375,0,0,6,12,3,11.666667,0,12.7,3.7,-1.7,Dropout_Enrolled
1,44,1,9130,1,39,140,1,Secondary,Basic,140,0,0,0,1,1,0,20,2,6,12,5,12.4,0,1,6,11,2,15,0,13.9,-0.3,0.79,Dropout_Enrolled
1,1,1,9147,1,1,116,1,Basic,Basic,127.9,0,0,1,0,0,1,20,0,5,12,2,13,1,0,5,13,2,11.5,0,9.4,-0.8,-3.12,Dropout_Enrolled
1,39,1,9130,1,1,133.1,1,Secondary,Secondary,120,1,0,1,0,1,0,41,0,5,5,0,0,1,0,5,5,0,0,5,12.7,3.7,-1.7,Dropout_Enrolled
2,39,1,9238,1,19,133.1,1,Basic,Basic,130,1,0,0,1,0,0,31,0,6,11,0,0,0,0,5,10,0,0,0,9.4,-0.8,-3.12,Dropout_Enrolled
2,39,1,9853,1,1,110,1,Basic,Basic,95.5,0,0,1,0,0,0,32,0,6,6,0,0,0,0,5,10,0,0,0,10.8,1.4,1.74,Dropout_Enrolled
1,39,1,9991,0,40,130,1,Basic,Secondary,152,1,0,0,1,0,0,27,0,5,0,0,0,0,0,5,0,0,0,0,8.9,1.4,3.51,Dropout_Enrolled
1,1,2,9254,1,1,112,1,Basic,Basic,106.1,1,0,0,0,0,0,20,0,6,0,0,0,0,0,6,0,0,0,0,11.1,0.6,2.02,Dropout_Enrolled
1,1,1,9670,1,1,143,1,Higher,Basic,144.1,1,0,0,1,0,0,19,0,6,7,5,12.6,0,0,6,10,5,12.375,0,10.8,1.4,1.74,Dropout_Enrolled
1,1,1,9238,1,1,108,1,Secondary,Basic,105.9,0,0,0,1,0,1,20,0,6,11,5,10.6,0,0,6,9,5,11.166667,0,11.1,0.6,2.02,Dropout_Enrolled
2,39,1,9853,1,12,133.1,1,Basic,Basic,103,0,0,0,1,0,0,41,0,6,0,0,0,0,0,6,0,0,0,0,16.2,0.3,-0.92,Dropout_Enrolled
1,7,1,9991,0,40,120,1,Secondary,Basic,120,0,0,0,1,0,0,24,0,5,5,0,0,0,0,5,6,0,0,0,12.4,0.5,1.79,Dropout_Enrolled
1,1,1,171,1,1,115,1,Basic,Basic,129,1,0,1,0,0,1,23,0,0,0,0,0,0,0,0,0,0,0,0,9.4,-0.8,-3.12,Dropout_Enrolled
2,1,1,8014,0,1,121,1,Basic,Basic,114.4,1,0,0,1,0,0,45,8,12,14,12,14,0,2,7,12,7,13.857143,0,7.6,2.6,0.32,Dropout_Enrolled
2,39,1,9003,1,19,133.1,1,Basic,Basic,120,0,0,1,1,0,0,37,0,6,10,6,12.875,0,0,6,12,6,12.9,0,16.2,0.3,-0.92,Dropout_Enrolled
2,39,1,9119,1,1,120,1,Unknown,Unknown,140,1,0,0,1,1,0,33,0,5,14,1,18,0,0,5,9,2,13,0,9.4,-0.8,-3.12,Dropout_Enrolled
1,1,4,9119,1,1,126,1,Higher,Basic,123.6,1,0,0,1,1,0,18,0,5,6,5,12.4,0,0,5,9,3,13,0,8.9,1.4,3.51,Dropout_Enrolled
1,51,1,9070,1,12,133.1,1,Basic,Basic,106.6,0,0,1,1,0,0,31,2,6,8,5,11,0,4,6,12,6,10.166667,0,8.9,1.4,3.51,Dropout_Enrolled
2,43,1,9991,0,1,140,1,Basic,Basic,107.8,0,0,0,1,0,0,33,8,10,15,8,10.375,0,7,10,13,9,10.444444,0,7.6,2.6,0.32,Dropout_Enrolled
1,1,2,9670,1,1,117,1,Basic,Basic,111.8,0,0,0,1,0,0,22,0,5,8,3,12,0,0,5,9,2,11,1,7.6,2.6,0.32,Dropout_Enrolled
1,39,1,9147,1,12,133.1,1,Basic,Basic,118.2,0,0,0,1,0,0,31,0,5,8,1,13,2,0,5,9,4,12.25,0,10.8,1.4,1.74,Dropout_Enrolled
1,15,1,9085,1,1,133.1,41,Basic,Basic,109.6,0,0,0,1,0,0,18,0,6,13,4,12.25,0,0,6,15,5,11,0,11.1,0.6,2.02,Dropout_Enrolled
1,39,1,9991,0,1,133.1,1,Secondary,Secondary,127.7,0,0,0,1,0,0,25,0,5,12,4,12.5,0,0,5,10,4,11,0,13.9,-0.3,0.79,Dropout_Enrolled
1,44,1,171,1,39,110,1,Secondary,Secondary,114.2,0,0,0,1,1,0,19,0,0,0,0,0,0,0,0,0,0,0,0,12.4,0.5,1.79,Dropout_Enrolled
1,17,1,171,1,1,129,1,Secondary,Secondary,124.8,1,0,0,1,1,0,18,0,0,0,0,0,0,0,0,0,0,0,0,12.7,3.7,-1.7,Dropout_Enrolled
1,1,1,9500,1,1,137,1,Secondary,Basic,125.3,0,0,0,1,1,0,19,0,7,7,7,12.2,0,0,7,7,7,12.2,0,7.6,2.6,0.32,Dropout_Enrolled
1,39,1,8014,0,1,133.1,1,Basic,Basic,120,0,0,1,0,0,0,31,0,6,14,2,10.5,0,0,6,6,3,12.333333,0,11.1,0.6,2.02,Dropout_Enrolled
1,1,2,171,1,1,140,1,Secondary,Higher,138.3,1,0,0,1,0,0,18,0,0,0,0,0,0,0,0,0,0,0,0,12.4,0.5,1.79,Dropout_Enrolled
1,17,6,9147,1,1,121,1,Basic,Basic,123.8,0,0,0,1,0,1,19,0,5,5,5,12.4,0,0,5,8,3,11,0,12.7,3.7,-1.7,Dropout_Enrolled
1,44,1,9254,1,39,130,1,Secondary,Secondary,130,1,0,1,1,1,0,23,0,6,12,3,11.5,0,0,6,12,3,10.666667,0,8.9,1.4,3.51,Dropout_Enrolled
1,7,1,9556,1,43,160,1,Basic,Basic,160,0,0,0,1,1,0,36,0,7,16,1,12,0,0,7,13,0,0,1,11.1,0.6,2.02,Dropout_Enrolled
1,44,1,9085,1,39,140,1,Secondary,Basic,140,1,0,0,1,0,0,20,1,6,13,6,12.555556,0,1,6,11,5,11.8,0,16.2,0.3,-0.92,Dropout_Enrolled
1,39,1,9991,0,1,130,1,Higher,Secondary,120.5,0,0,0,1,1,0,28,0,5,5,0,0,0,0,5,5,0,0,0,12.7,3.7,-1.7,Dropout_Enrolled
1,43,1,9670,1,1,142,1,Basic,Secondary,138.5,1,0,0,1,1,0,18,0,6,16,5,13.8,0,0,6,7,5,12.4,0,13.9,-0.3,0.79,Dropout_Enrolled
1,17,5,9085,1,1,130,1,Basic,Basic,115.8,0,0,0,0,0,0,18,0,6,0,0,0,0,0,6,0,0,0,0,12.7,3.7,-1.7,Dropout_Enrolled
1,17,1,9254,1,1,136,1,Secondary,Higher,128.7,1,0,0,1,0,0,20,0,6,8,6,11.666667,0,0,6,10,6,11,0,13.9,-0.3,0.79,Dropout_Enrolled
1,43,1,9130,1,1,127,1,Basic,Basic,120.7,1,0,1,1,0,0,18,0,5,11,1,12,0,0,5,9,3,12,0,12.7,3.7,-1.7,Dropout_Enrolled
1,17,6,9147,1,1,118,1,Basic,Secondary,117,1,0,0,0,1,0,23,0,5,9,3,10,1,0,5,9,3,12.333333,0,9.4,-0.8,-3.12,Dropout_Enrolled
1,1,1,9238,1,1,133,1,Basic,Basic,131.3,1,0,1,1,0,0,18,0,6,7,5,13.6,0,0,6,7,5,11.8,0,8.9,1.4,3.51,Dropout_Enrolled
1,17,2,9773,1,1,124,1,Secondary,Secondary,127.9,1,0,0,1,1,0,20,0,6,11,3,13.666667,0,0,6,13,4,10.25,0,9.4,-0.8,-3.12,Dropout_Enrolled
1,17,1,9003,1,1,126,1,Basic,Higher,116.9,0,0,0,1,1,0,19,0,6,10,6,13.666667,0,0,6,10,4,12.25,0,13.9,-0.3,0.79,Dropout_Enrolled
1,1,1,9238,1,1,135,1,Basic,Basic,121,0,0,0,1,0,0,20,0,6,13,1,10,0,0,6,13,1,13,0,9.4,-0.8,-3.12,Dropout_Enrolled
1,1,5,9147,1,1,125,1,Basic,Basic,122.2,1,0,0,1,0,0,18,0,5,9,1,11,0,0,5,9,2,12.5,0,7.6,2.6,0.32,Dropout_Enrolled
1,1,1,9254,1,1,121,1,Secondary,Secondary,111.9,1,0,0,0,1,0,20,0,6,14,2,10.5,0,0,6,16,0,0,0,10.8,1.4,1.74,Dropout_Enrolled
1,39,1,9003,1,1,123,1,Basic,Basic,110,0,0,1,0,0,0,48,0,6,6,0,0,0,0,6,6,0,0,0,11.1,0.6,2.02,Dropout_Enrolled
1,17,2,9853,1,1,150,1,Basic,Basic,132.5,1,0,0,1,0,0,22,0,6,9,4,12.25,0,0,6,8,5,11.6,0,10.8,1.4,1.74,Dropout_Enrolled
1,1,1,8014,0,1,126,1,Unknown,Unknown,142.4,0,0,0,1,0,0,32,0,6,0,0,0,0,0,6,0,0,0,0,7.6,2.6,0.32,Dropout_Enrolled
4,39,1,9991,0,1,130,1,Basic,Basic,148,0,0,0,1,0,1,31,0,5,11,4,11.25,0,0,5,10,4,10.833333,0,13.9,-0.3,0.79,Dropout_Enrolled
1,17,1,9670,1,1,133.1,1,Unknown,Higher,130.6,1,0,1,0,1,0,23,0,5,5,0,0,0,0,5,5,0,0,0,7.6,2.6,0.32,Dropout_Enrolled
1,1,1,171,1,1,152,1,Secondary,Basic,160.4,1,0,0,0,0,0,19,0,0,0,0,0,0,0,0,0,0,0,0,7.6,2.6,0.32,Dropout_Enrolled
1,17,1,9853,1,1,158,1,Basic,Basic,140.2,1,0,0,1,0,0,18,0,6,9,5,11,0,0,6,9,4,11.25,0,10.8,1.4,1.74,Dropout_Enrolled
1,39,1,9500,1,1,140,1,Basic,Basic,132.8,0,0,0,1,1,0,35,0,7,10,4,12.6,0,0,7,9,5,12.38,0,12.4,0.5,1.79,Dropout_Enrolled
1,39,1,9991,0,1,133.1,1,Basic,Basic,143.2,0,0,0,1,1,0,35,0,5,5,0,0,0,0,5,5,0,0,0,11.1,0.6,2.02,Dropout_Enrolled
1,1,1,9070,1,1,124,1,Basic,Basic,113.9,1,0,0,1,1,0,18,0,6,0,0,0,0,0,6,0,0,0,0,12.4,0.5,1.79,Dropout_Enrolled
1,17,1,9147,1,1,140,1,Basic,Basic,132.3,1,0,0,1,0,0,20,0,5,9,1,10,0,0,5,10,1,11,0,7.6,2.6,0.32,Dropout_Enrolled
1,51,1,9070,1,1,122,1,Basic,Basic,128.8,1,0,0,1,1,0,21,4,12,13,5,13.2,0,4,12,12,4,13.5,0,8.9,1.4,3.51,Dropout_Enrolled
1,1,1,171,1,1,138,1,Basic,Basic,124,1,0,0,0,0,0,19,0,0,0,0,0,0,0,0,0,0,0,0,10.8,1.4,1.74,Dropout_Enrolled
2,43,1,9085,1,1,160,1,Basic,Basic,120,0,0,0,1,1,0,21,0,5,11,0,0,2,0,5,11,3,11.666667,1,9.4,-0.8,-3.12,Dropout_Enrolled
1,1,1,9670,1,1,131,1,Basic,Basic,127.2,0,0,0,1,0,1,18,0,5,7,3,12.666667,0,0,5,5,4,12.5,0,9.4,-0.8,-3.12,Dropout_Enrolled
2,39,1,9147,1,1,140,1,Basic,Basic,130,1,0,0,0,0,0,39,0,5,12,3,10.666667,2,0,5,15,3,10.666667,0,9.4,-0.8,-3.12,Dropout_Enrolled
1,17,2,9773,1,1,120,1,Secondary,Secondary,127,1,0,0,0,1,0,18,0,6,6,0,0,0,0,6,0,0,0,0,8.9,1.4,3.51,Dropout_Enrolled
1,1,1,9147,1,1,120,1,Secondary,Basic,111.3,0,0,0,1,1,1,18,0,5,10,4,10.8,0,0,5,10,4,11.75,0,15.5,2.8,-4.06,Dropout_Enrolled
1,17,1,9773,1,1,117,1,Basic,Basic,120.5,1,0,0,1,1,0,19,0,6,12,0,0,1,0,6,0,0,0,0,9.4,-0.8,-3.12,Dropout_Enrolled
1,1,1,9119,1,1,146,1,Basic,Basic,148.5,1,0,0,1,1,0,18,0,5,7,4,10,0,0,5,8,1,16,0,10.8,1.4,1.74,Dropout_Enrolled
1,39,1,8014,0,1,140,1,Basic,Basic,115.5,0,0,0,0,1,0,33,0,6,6,1,11,0,0,6,0,0,0,0,10.8,1.4,1.74,Dropout_Enrolled
1,39,1,9991,0,1,110,1,Basic,Basic,133.9,0,0,0,1,0,0,30,0,5,7,5,11.4,0,0,5,6,5,13.666667,0,10.8,1.4,1.74,Dropout_Enrolled
1,44,1,9085,1,39,130,1,Higher,Secondary,130,1,0,0,1,0,0,21,1,6,13,3,11.75,0,1,6,13,5,12.333333,0,12.4,0.5,1.79,Dropout_Enrolled
3,1,2,9085,1,1,135,1,Basic,Secondary,129.4,1,0,0,1,0,0,21,0,5,8,0,0,4,0,5,12,0,0,4,10.8,1.4,1.74,Dropout_Enrolled
1,39,1,9670,1,1,120,1,Secondary,Basic,140.4,0,0,0,1,0,0,31,2,6,13,5,11.4,0,0,6,14,4,11.75,0,13.9,-0.3,0.79,Dropout_Enrolled
1,51,1,9119,1,1,129,1,Higher,Basic,121.6,1,0,0,1,1,0,19,0,5,10,0,0,0,0,5,7,1,10,0,7.6,2.6,0.32,Dropout_Enrolled
2,39,1,9085,1,19,133.1,1,Basic,Basic,128.2,0,0,0,1,0,0,31,0,6,0,0,0,0,0,6,0,0,0,0,12.7,3.7,-1.7,Dropout_Enrolled
1,17,5,9147,1,1,127,1,Secondary,Basic,124.6,1,0,0,1,0,1,19,0,5,12,2,10,0,0,5,11,4,11.75,0,11.1,0.6,2.02,Dropout_Enrolled
1,44,1,9003,1,39,140,1,Basic,Secondary,140,1,0,1,1,1,0,26,0,6,6,0,0,0,0,6,7,0,0,0,8.9,1.4,3.51,Dropout_Enrolled
1,1,1,9070,1,1,132,1,Higher,Secondary,136.6,1,0,0,1,0,0,18,1,6,10,6,11.714286,1,0,6,15,6,10.375,0,13.9,-0.3,0.79,Dropout_Enrolled
1,17,5,9500,1,1,137,1,Secondary,Secondary,131.1,1,0,0,1,0,0,18,0,7,9,7,12.385714,0,0,8,9,7,12.728571,0,13.9,-0.3,0.79,Dropout_Enrolled
1,17,1,9147,1,1,96,1,Basic,Basic,96,1,0,0,1,0,0,19,0,5,10,3,10.666667,0,0,5,9,0,0,3,16.2,0.3,-0.92,Dropout_Enrolled
2,1,1,9147,1,1,137,1,Basic,Basic,124.4,0,0,0,1,0,0,19,0,5,6,4,11.25,0,0,5,10,3,11.714286,0,10.8,1.4,1.74,Dropout_Enrolled
1,18,4,9500,1,1,137,1,Higher,Secondary,126.7,1,0,0,1,0,0,18,0,7,8,7,13.6875,0,0,8,9,8,15.622222,0,13.9,-0.3,0.79,Dropout_Enrolled
1,18,6,8014,0,1,134,1,Higher,Basic,120.7,1,0,0,1,0,0,23,0,6,8,4,11,0,0,6,6,0,0,0,13.9,-0.3,0.79,Dropout_Enrolled
1,43,1,9853,1,1,110,1,Basic,Basic,107.7,0,0,1,0,0,0,28,0,6,0,0,0,0,0,5,10,0,0,0,10.8,1.4,1.74,Dropout_Enrolled
2,39,1,8014,0,9,133.1,1,Basic,Basic,100,1,0,0,1,0,0,37,0,6,0,0,0,0,0,6,0,0,0,0,9.4,-0.8,-3.12,Dropout_Enrolled
4,39,1,9500,1,1,133.1,1,Basic,Basic,130,0,0,1,1,0,0,38,0,7,13,3,11.833333,0,0,7,14,2,10,0,16.2,0.3,-0.92,Dropout_Enrolled
1,17,3,9147,1,1,137,1,Secondary,Secondary,124.4,1,0,0,1,0,0,18,0,5,5,5,12.6,0,0,5,5,4,11,0,11.1,0.6,2.02,Dropout_Enrolled
1,1,1,9147,1,1,118,1,Secondary,Secondary,111,0,0,0,0,1,0,21,0,5,7,2,11,0,0,5,9,3,11.428571,0,10.8,1.4,1.74,Dropout_Enrolled
1,1,1,171,1,1,124,1,Basic,Secondary,121.2,1,0,0,1,1,0,20,0,0,0,0,0,0,0,0,0,0,0,0,10.8,1.4,1.74,Dropout_Enrolled
1,1,1,171,1,1,131,1,Secondary,Secondary,127.2,1,0,1,1,1,0,23,13,17,19,13,12.153846,0,10,17,28,11,11.909091,1,11.1,0.6,2.02,Dropout_Enrolled
2,39,1,9991,0,1,120,1,Basic,Basic,133.2,1,0,0,1,1,0,32,0,5,5,0,0,0,0,5,5,0,0,0,7.6,2.6,0.32,Dropout_Enrolled
1,39,1,9085,1,1,130,1,Basic,Basic,130,1,0,0,1,0,0,28,0,5,13,4,11.25,1,0,5,11,4,10.5,0,12.7,3.7,-1.7,Dropout_Enrolled
1,1,4,9853,1,1,134,1,Basic,Secondary,127.4,1,0,0,1,0,0,18,0,6,7,5,12.2,0,0,6,7,5,12.2,0,10.8,1.4,1.74,Dropout_Enrolled
1,39,1,9991,0,1,110,1,Basic,Basic,139,0,0,0,1,1,0,40,0,5,0,0,0,0,0,5,0,0,0,0,12.7,3.7,-1.7,Dropout_Enrolled
1,1,1,9147,1,1,124,1,Basic,Basic,128.6,1,0,0,1,0,0,20,0,5,5,4,12,0,0,4,4,2,11.5,0,7.6,2.6,0.32,Dropout_Enrolled
1,51,1,8014,0,1,120,1,Secondary,Secondary,128.5,0,0,1,0,1,0,26,2,8,13,4,10.5,0,5,10,16,7,10.428571,0,12.4,0.5,1.79,Dropout_Enrolled
1,39,1,9003,1,1,130,1,Secondary,Secondary,140,0,0,0,0,1,0,25,0,6,0,0,0,0,0,6,0,0,0,0,13.9,-0.3,0.79,Dropout_Enrolled
2,43,1,9991,0,1,130,1,Basic,Basic,128.2,0,0,0,1,0,0,34,3,8,9,3,11,0,2,7,7,2,10,0,9.4,-0.8,-3.12,Dropout_Enrolled
2,39,1,9085,1,9,133.1,1,Secondary,Secondary,120,1,0,0,0,1,0,29,0,5,12,0,0,4,0,5,8,0,0,1,9.4,-0.8,-3.12,Dropout_Enrolled
1,17,2,9670,1,1,129,1,Secondary,Basic,119.2,1,0,0,1,0,0,21,0,6,0,0,0,0,0,6,0,0,0,0,8.9,1.4,3.51,Dropout_Enrolled
1,10,1,9773,1,1,151,22,Basic,Basic,151,1,0,0,1,0,0,18,0,6,12,0,0,1,0,6,0,0,0,0,9.4,-0.8,-3.12,Dropout_Enrolled
1,17,1,9003,1,1,119,1,Basic,Basic,113.2,0,0,1,1,0,0,20,0,6,8,6,13.333333,0,0,6,8,5,14,0,11.1,0.6,2.02,Dropout_Enrolled
1,43,1,9147,1,1,130,1,Basic,Basic,130.8,0,0,0,1,1,0,22,0,5,5,0,0,0,0,5,9,3,13.333333,2,16.2,0.3,-0.92,Dropout_Enrolled
1,1,1,9254,1,1,123,1,Basic,Basic,114.3,0,0,0,1,0,0,19,0,6,0,0,0,0,0,6,0,0,0,0,11.1,0.6,2.02,Dropout_Enrolled
1,43,1,9070,1,1,100,1,Basic,Basic,108,1,0,0,1,1,0,34,7,12,12,7,11.428571,0,4,12,12,7,11.857143,0,7.6,2.6,0.32,Dropout_Enrolled
1,1,3,9500,1,1,139,1,Higher,Secondary,126,1,0,0,1,1,0,18,0,8,15,5,12.288,1,0,8,15,5,12.288,1,10.8,1.4,1.74,Dropout_Enrolled
1,1,5,9670,1,1,116,1,Basic,Basic,119.5,1,0,0,0,0,0,18,0,6,0,0,0,0,0,6,0,0,0,0,8.9,1.4,3.51,Dropout_Enrolled
1,17,1,9670,1,1,127,1,Secondary,Basic,125.6,0,0,1,1,0,1,18,0,6,7,1,14,0,0,6,6,0,0,0,15.5,2.8,-4.06,Dropout_Enrolled
1,1,2,9147,1,1,120,1,Secondary,Basic,113.4,1,0,0,1,1,1,19,0,5,5,0,0,0,0,5,5,0,0,0,11.1,0.6,2.02,Dropout_Enrolled
1,1,3,171,1,1,115,1,Secondary,Secondary,108.7,1,0,0,0,0,0,21,0,0,0,0,0,0,0,0,0,0,0,0,9.4,-0.8,-3.12,Dropout_Enrolled
1,39,1,9991,0,19,133.1,1,Higher,Secondary,100,0,0,0,1,1,0,24,0,5,7,0,0,0,0,5,7,0,0,0,16.2,0.3,-0.92,Dropout_Enrolled
1,18,1,9130,1,1,146,1,Higher,Higher,137.8,0,0,0,1,1,0,18,0,6,11,5,13.6,0,0,6,13,3,12.666667,0,13.9,-0.3,0.79,Dropout_Enrolled
1,1,3,9500,1,1,122,1,Higher,Secondary,114.8,1,0,0,1,0,1,19,0,7,11,4,12.65,0,0,7,9,5,11.1,0,12.4,0.5,1.79,Dropout_Enrolled
1,43,1,9500,1,1,120,1,Higher,Higher,120.6,0,0,0,1,1,0,18,0,7,12,4,12.65,0,0,7,10,3,10.666667,0,16.2,0.3,-0.92,Dropout_Enrolled
4,39,1,9500,1,19,133.1,1,Basic,Basic,100,0,0,0,0,0,0,40,0,8,11,5,11.832,4,0,8,11,5,11.832,4,9.4,-0.8,-3.12,Dropout_Enrolled
1,43,1,9500,1,1,140,1,Basic,Basic,125.7,1,0,0,1,1,1,19,0,7,8,5,11.2,0,0,7,8,5,11.2,0,7.6,2.6,0.32,Dropout_Enrolled
5,39,1,9147,1,1,180,1,Secondary,Secondary,140.5,0,0,1,0,0,0,24,0,5,0,0,0,0,0,5,0,0,0,0,13.9,-0.3,0.79,Dropout_Enrolled
1,43,1,9991,0,2,110,1,Basic,Basic,112.9,0,0,0,1,0,0,38,14,15,16,14,10.928571,0,12,14,16,12,11.833333,0,9.4,-0.8,-3.12,Dropout_Enrolled
1,17,3,9500,1,1,142,1,Higher,Higher,132.9,1,0,0,1,1,0,18,0,7,8,5,14.2,0,0,7,9,6,12.4,0,12.4,0.5,1.79,Dropout_Enrolled
1,17,2,9556,1,1,133.1,1,Basic,Basic,106,1,0,0,1,0,0,19,0,7,16,2,12.75,0,0,7,12,2,11,0,8.9,1.4,3.51,Dropout_Enrolled
1,43,2,9670,1,1,129,1,Higher,Higher,122.4,1,0,0,1,0,0,19,0,5,5,4,13.75,0,0,6,9,5,12.6,0,12.7,3.7,-1.7,Dropout_Enrolled
2,39,1,9991,0,19,133.1,1,Basic,Basic,120,0,0,0,1,1,0,39,0,5,9,0,0,0,0,5,5,1,10,0,12.7,3.7,-1.7,Dropout_Enrolled
2,39,1,9773,1,1,100,1,Basic,Basic,133,0,0,0,1,1,0,47,0,6,8,5,11.4,0,0,6,10,6,11.666667,0,12.7,3.7,-1.7,Dropout_Enrolled
1,17,2,9254,1,1,135,1,Basic,Basic,135,1,0,0,1,1,0,20,0,6,8,6,11.833333,0,0,6,9,5,10.4,0,7.6,2.6,0.32,Dropout_Enrolled
1,43,1,8014,0,6,133.1,1,Unknown,Unknown,100,0,0,1,1,0,0,29,1,6,9,4,12,0,1,6,13,2,10.5,0,7.6,2.6,0.32,Dropout_Enrolled
4,39,2,9556,1,1,133.1,1,Basic,Basic,101.5,1,0,0,1,0,0,24,0,7,0,0,0,0,0,7,0,0,0,0,10.8,1.4,1.74,Dropout_Enrolled
1,1,1,9670,1,1,133,1,Basic,Basic,128.1,1,0,0,1,1,1,18,0,6,6,6,13,0,0,6,6,6,13,0,13.9,-0.3,0.79,Dropout_Enrolled
4,39,1,9670,1,1,110,1,Basic,Basic,107.2,0,0,0,1,1,0,42,0,6,0,0,0,0,0,6,0,0,0,0,12.7,3.7,-1.7,Dropout_Enrolled
1,39,1,171,1,1,140,1,Basic,Basic,100.8,0,1,0,1,0,0,26,0,0,0,0,0,0,0,0,0,0,0,0,16.2,0.3,-0.92,Dropout_Enrolled
1,39,1,9991,0,1,133.1,1,Higher,Basic,121.7,0,0,0,1,1,0,31,0,5,5,0,0,0,0,5,7,0,0,0,13.9,-0.3,0.79,Dropout_Enrolled
2,39,1,9991,0,12,133.1,1,Basic,Unknown,110.7,1,0,0,1,0,0,50,0,5,0,0,0,0,0,5,0,0,0,0,7.6,2.6,0.32,Dropout_Enrolled
1,39,1,9254,1,19,133.1,1,Basic,Basic,100,0,0,0,1,1,0,27,0,6,11,3,11.333333,0,0,6,10,3,14.75,0,16.2,0.3,-0.92,Dropout_Enrolled
1,18,4,9254,1,1,119,1,Basic,Basic,113.1,1,0,0,0,1,0,22,0,5,5,0,0,0,0,5,5,0,0,0,15.5,2.8,-4.06,Dropout_Enrolled
2,43,1,9991,0,2,120,1,Basic,Basic,120,0,0,0,0,0,0,38,9,12,12,9,12.222222,2,9,12,12,9,13,0,9.4,-0.8,-3.12,Dropout_Enrolled
1,43,1,9500,1,1,120,1,Basic,Basic,120,1,0,0,1,0,0,26,0,7,8,6,12,0,0,7,8,6,12,0,7.6,2.6,0.32,Dropout_Enrolled
1,1,1,9147,1,1,135,1,Basic,Basic,126.3,0,0,0,1,1,0,18,0,5,11,2,13.5,0,0,5,11,3,12.333333,0,8.9,1.4,3.51,Dropout_Enrolled
1,1,1,9853,1,1,125,1,Basic,Basic,125.4,0,0,1,0,0,0,19,0,7,11,4,12,0,0,7,9,6,11.833333,0,16.2,0.3,-0.92,Dropout_Enrolled
1,16,1,171,1,1,145,1,Higher,Higher,155,1,0,0,1,0,0,24,11,17,19,11,12.909091,0,9,13,15,9,13.555556,0,12.4,0.5,1.79,Dropout_Enrolled
1,1,1,9147,1,1,151,1,Basic,Secondary,138.4,0,0,0,1,0,0,18,0,5,6,4,11.25,0,0,5,8,5,11,0,10.8,1.4,1.74,Dropout_Enrolled
1,7,1,8014,0,4,120,1,Higher,Higher,120,0,0,0,1,0,0,18,10,16,24,13,13.846154,0,7,11,15,9,12.555556,0,15.5,2.8,-4.06,Dropout_Enrolled
1,43,1,9147,1,1,129,1,Basic,Secondary,112,0,0,0,1,1,0,22,5,9,9,5,11.2,0,5,9,14,7,11.25,2,12.7,3.7,-1.7,Dropout_Enrolled
1,1,1,9670,1,1,133.1,1,Higher,Secondary,95,0,0,0,1,1,0,19,0,6,7,0,0,0,0,6,6,0,0,0,15.5,2.8,-4.06,Dropout_Enrolled
1,44,1,9130,1,39,130,1,Basic,Basic,150,0,0,0,1,1,0,24,2,6,8,4,11.75,0,1,6,8,2,13.5,0,11.1,0.6,2.02,Dropout_Enrolled
1,7,1,9500,1,3,120,1,Basic,Higher,120,1,0,0,1,0,0,29,0,8,8,6,12.25,1,0,8,8,6,12.25,1,12.7,3.7,-1.7,Dropout_Enrolled
1,1,3,9500,1,1,131,1,Basic,Basic,118,1,0,0,1,0,1,18,0,8,8,7,13.242857,0,0,8,8,7,13.242857,0,12.7,3.7,-1.7,Dropout_Enrolled
1,53,1,9670,1,42,140,1,Basic,Basic,140,1,0,1,1,0,0,21,0,6,12,1,12,0,0,6,11,1,11,0,8.9,1.4,3.51,Dropout_Enrolled
1,17,1,9085,1,1,137,1,Secondary,Secondary,134.6,1,0,0,1,1,0,22,0,6,16,0,0,0,0,6,7,0,0,0,16.2,0.3,-0.92,Dropout_Enrolled
1,53,1,9085,1,42,140,1,Basic,Basic,144.9,1,0,1,0,0,0,23,7,11,18,11,13.166667,0,4,9,15,8,13.333333,0,8.9,1.4,3.51,Dropout_Enrolled
1,39,1,9003,1,1,140,41,Secondary,Secondary,100,0,0,1,0,0,0,29,3,9,9,3,14.333333,0,1,7,8,1,14,0,15.5,2.8,-4.06,Dropout_Enrolled
1,1,1,9238,1,1,135,1,Basic,Secondary,121,0,0,0,1,0,0,21,0,6,11,5,11.2,0,0,6,15,1,10,0,7.6,2.6,0.32,Dropout_Enrolled
2,39,1,9991,0,1,100,1,Basic,Basic,125.3,1,0,0,1,1,0,41,0,5,8,4,11.25,0,0,5,8,3,11,1,7.6,2.6,0.32,Dropout_Enrolled
1,39,1,9119,1,10,133.1,1,Unknown,Basic,128.8,1,0,0,1,1,0,43,0,5,0,0,0,0,0,5,0,0,0,0,7.6,2.6,0.32,Dropout_Enrolled
1,1,5,9254,1,1,120,1,Higher,Basic,114.8,1,0,0,0,1,0,19,0,6,0,0,0,0,0,6,0,0,0,0,8.9,1.4,3.51,Dropout_Enrolled
1,1,3,9773,1,1,175,1,Higher,Basic,157.5,1,0,0,1,0,0,19,0,6,8,6,13.166667,0,0,6,7,6,13.166667,0,10.8,1.4,1.74,Dropout_Enrolled
1,1,1,9238,1,1,151,1,Basic,Basic,157,1,0,1,1,0,1,18,0,6,8,5,11.6,0,0,6,12,4,11,0,7.6,2.6,0.32,Dropout_Enrolled
1,17,5,9254,1,1,113,1,Secondary,Secondary,110.2,1,0,0,1,1,0,21,0,6,10,4,11.5,0,0,6,10,2,10.5,0,9.4,-0.8,-3.12,Dropout_Enrolled
1,17,5,9773,1,1,139,1,Basic,Secondary,123.6,1,0,0,1,1,0,18,0,6,6,6,13,0,0,6,12,0,0,0,7.6,2.6,0.32,Dropout_Enrolled
1,43,1,9991,0,1,120,1,Basic,Basic,115.8,0,0,1,0,1,0,28,4,9,14,4,10,0,1,6,6,1,10,0,12.7,3.7,-1.7,Dropout_Enrolled
1,1,1,9254,1,1,140,1,Basic,Basic,130,0,0,0,1,1,0,21,0,6,8,6,12.571429,0,0,6,10,4,13,0,12.7,3.7,-1.7,Dropout_Enrolled
1,39,1,9500,1,1,133.1,1,Basic,Basic,124.5,0,0,0,0,1,0,38,0,7,11,5,12.18,0,0,7,11,4,11.8125,0,11.1,0.6,2.02,Dropout_Enrolled
1,1,2,9500,1,1,126,1,Basic,Secondary,118.7,1,0,0,1,0,0,19,0,7,0,0,0,0,0,8,0,0,0,0,13.9,-0.3,0.79,Dropout_Enrolled
1,1,2,9500,1,1,131,1,Secondary,Basic,126.1,1,0,0,1,0,1,19,0,7,7,7,12.495714,0,0,8,9,7,12.242857,0,11.1,0.6,2.02,Dropout_Enrolled
1,1,1,171,1,1,188,1,Higher,Higher,178.3,1,0,0,1,0,0,18,0,0,0,0,0,0,0,0,0,0,0,0,15.5,2.8,-4.06,Dropout_Enrolled
1,39,1,9556,1,19,133.1,1,Basic,Secondary,105,0,0,0,1,1,0,25,0,7,14,4,12.95,1,0,7,11,4,13.125,1,15.5,2.8,-4.06,Dropout_Enrolled
1,39,1,9119,1,19,133.1,1,Secondary,Basic,100,0,0,0,1,1,0,25,0,5,13,1,11,0,0,5,11,1,10,0,13.9,-0.3,0.79,Dropout_Enrolled
1,18,4,9085,1,1,170,1,Secondary,Secondary,166.6,0,0,1,0,0,1,20,2,5,8,5,14.4,1,0,5,6,5,14,0,12.7,3.7,-1.7,Dropout_Enrolled
1,1,1,9130,1,1,152,1,Basic,Basic,135.6,1,0,0,1,1,0,18,0,5,5,5,15.4,0,0,5,5,5,15.6,0,12.7,3.7,-1.7,Dropout_Enrolled
1,1,2,9147,1,1,113,1,Basic,Basic,107.4,1,0,0,1,1,0,20,0,5,12,3,10.5,0,0,5,10,4,11.25,0,12.4,0.5,1.79,Dropout_Enrolled
1,1,2,171,1,1,127,1,Higher,Secondary,133.5,1,0,0,1,1,0,17,0,0,0,0,0,0,0,0,0,0,0,0,15.5,2.8,-4.06,Dropout_Enrolled
1,17,5,9670,1,1,125,1,Basic,Basic,118.4,1,0,0,1,0,1,19,0,5,8,3,10.5,0,0,5,6,4,11.75,1,7.6,2.6,0.32,Dropout_Enrolled
1,1,1,9147,1,1,133.1,1,Basic,Secondary,100,0,0,0,1,0,0,21,0,5,12,3,12,0,0,5,12,1,15,3,16.2,0.3,-0.92,Dropout_Enrolled
1,43,1,171,1,1,144,1,Basic,Basic,121.6,0,0,0,1,1,0,22,0,0,0,0,0,0,0,0,0,0,0,0,13.9,-0.3,0.79,Dropout_Enrolled
1,7,1,9147,1,3,150,1,Higher,Secondary,150,0,0,0,1,0,0,26,0,5,5,0,0,0,0,5,0,0,0,0,9.4,-0.8,-3.12,Dropout_Enrolled
1,17,1,9853,1,1,128,1,Basic,Basic,128.4,1,0,0,1,0,1,20,0,6,10,5,13.2,0,0,6,12,5,12.833333,0,9.4,-0.8,-3.12,Dropout_Enrolled
4,39,1,9500,1,19,133.1,1,Basic,Basic,117.8,0,0,1,0,0,0,46,0,7,14,3,12.333333,0,0,7,12,3,11.083333,0,11.1,0.6,2.02,Dropout_Enrolled
1,17,1,9853,1,1,140,1,Basic,Basic,122.3,1,0,0,1,0,0,19,0,6,9,4,13,0,0,6,9,4,12.25,0,12.7,3.7,-1.7,Dropout_Enrolled
1,1,3,9119,1,1,117,1,Secondary,Secondary,111.1,0,0,0,1,1,1,19,0,5,10,5,11.8,0,0,5,12,3,11.5,0,11.1,0.6,2.02,Dropout_Enrolled
1,1,3,9085,1,1,131,1,Basic,Basic,136.3,1,0,1,0,0,0,18,0,5,7,3,13,0,0,5,8,3,12,0,7.6,2.6,0.32,Dropout_Enrolled
1,17,1,9670,1,1,133.1,1,Secondary,Basic,96,1,0,0,1,0,1,25,0,6,8,6,11.285714,0,0,6,10,5,12.2,0,15.5,2.8,-4.06,Dropout_Enrolled
1,17,4,171,1,1,133.1,1,Basic,Basic,117,1,0,0,1,1,0,21,0,0,0,0,0,0,0,0,0,0,0,0,10.8,1.4,1.74,Dropout_Enrolled
2,39,1,9991,0,19,133.1,1,Basic,Secondary,121.7,0,0,1,0,0,0,31,0,5,7,0,0,0,0,5,7,0,0,0,16.2,0.3,-0.92,Dropout_Enrolled
1,43,1,9119,1,1,140,1,Basic,Basic,146.5,0,0,0,1,1,0,39,0,5,10,3,17.333333,0,0,5,11,1,17,0,13.9,-0.3,0.79,Dropout_Enrolled
1,44,1,9003,1,1,140,1,Secondary,Secondary,140,0,0,0,1,1,0,20,0,6,11,6,11.285714,0,0,6,12,5,11.777778,0,16.2,0.3,-0.92,Dropout_Enrolled
2,39,1,9991,0,1,140,1,Basic,Basic,130,0,0,0,1,0,0,34,0,5,5,0,0,0,0,5,5,0,0,0,9.4,-0.8,-3.12,Dropout_Enrolled
1,51,1,9070,1,1,117,1,Higher,Secondary,120,1,0,0,1,0,0,21,0,6,7,5,12.2,0,0,6,7,4,12.6,0,8.9,1.4,3.51,Dropout_Enrolled
1,7,1,9556,1,3,130,1,Secondary,Basic,130,0,0,0,0,1,0,23,3,7,7,3,13.666667,0,3,8,8,3,11.333333,4,10.8,1.4,1.74,Dropout_Enrolled
1,39,1,9991,0,1,139,1,Secondary,Secondary,140.7,0,0,0,1,1,0,25,0,5,13,1,10,0,0,5,8,2,11.333333,0,12.4,0.5,1.79,Dropout_Enrolled
1,1,3,9500,1,1,138,1,Basic,Basic,124.9,1,0,0,1,0,1,18,0,7,9,7,13.2375,0,0,8,9,7,13.742857,0,13.9,-0.3,0.79,Dropout_Enrolled
1,53,1,9085,1,42,150,1,Secondary,Secondary,150,1,0,0,1,1,1,22,1,7,11,5,12.166667,0,4,8,14,5,14.8,0,8.9,1.4,3.51,Dropout_Enrolled
1,17,4,9119,1,1,139,1,Basic,Basic,133.1,1,0,0,1,1,0,18,0,5,8,4,12.5,0,0,5,7,3,14.666667,1,7.6,2.6,0.32,Dropout_Enrolled
2,39,1,9991,0,1,133.1,1,Basic,Basic,126.5,0,0,0,1,0,0,27,0,5,5,2,10.5,0,0,5,5,0,0,0,7.6,2.6,0.32,Dropout_Enrolled
6,39,2,9147,1,1,133.1,1,Basic,Basic,110,0,0,0,1,0,0,47,0,5,0,0,0,0,0,5,0,0,0,0,9.4,-0.8,-3.12,Dropout_Enrolled
4,39,1,9130,1,1,133.1,1,Higher,Secondary,110,1,0,0,1,0,1,30,0,6,7,0,0,0,0,6,16,1,10,0,11.1,0.6,2.02,Dropout_Enrolled
1,39,1,8014,0,1,120,1,Basic,Basic,106.8,0,0,0,1,0,0,49,0,6,9,5,12.333333,0,0,6,12,4,11.5,0,13.9,-0.3,0.79,Dropout_Enrolled
1,17,1,9254,1,1,133,1,Basic,Secondary,137.2,0,0,0,1,1,1,20,0,6,6,0,0,0,0,6,12,0,0,0,10.8,1.4,1.74,Dropout_Enrolled
1,17,2,9119,1,1,133.1,1,Secondary,Higher,117,1,0,0,1,1,0,21,0,5,10,5,11.166667,0,0,5,10,3,10.8,0,12.4,0.5,1.79,Dropout_Enrolled
4,39,1,9254,1,1,140,1,Basic,Basic,112,0,0,1,1,0,0,45,4,10,12,5,12.166667,4,2,8,8,0,0,2,12.7,3.7,-1.7,Dropout_Enrolled
1,18,4,9254,1,1,106,1,Basic,Basic,106,1,0,0,1,1,1,21,0,6,8,4,10.5,0,0,6,11,1,11,0,9.4,-0.8,-3.12,Dropout_Enrolled
1,17,5,9500,1,1,148,1,Secondary,Basic,130.2,1,0,0,1,0,0,19,0,7,0,0,0,0,0,8,0,0,0,0,12.4,0.5,1.79,Dropout_Enrolled
1,44,1,9085,1,39,150,1,Basic,Basic,150,1,0,0,1,0,0,23,0,6,11,4,11.5,0,0,6,12,4,12.2,0,8.9,1.4,3.51,Dropout_Enrolled
1,1,1,9670,1,1,128,1,Secondary,Secondary,130.8,1,0,0,1,0,0,20,0,5,5,4,15,0,0,5,5,4,13.75,0,7.6,2.6,0.32,Dropout_Enrolled
1,1,1,9147,1,1,140,1,Basic,Basic,120,1,0,0,1,1,0,21,0,5,8,3,10,0,0,5,10,4,11,0,12.7,3.7,-1.7,Dropout_Enrolled
1,1,1,9085,1,1,113,1,Secondary,Secondary,106.7,1,0,0,1,0,0,20,0,6,15,4,14.2,0,0,6,17,4,13.25,0,15.5,2.8,-4.06,Dropout_Enrolled
1,1,1,171,1,1,118,1,Basic,Basic,110,0,0,0,1,1,0,19,0,0,0,0,0,0,0,0,0,0,0,0,13.9,-0.3,0.79,Dropout_Enrolled
1,39,1,9500,1,1,133.1,1,Secondary,Basic,121.7,0,0,0,1,0,1,27,0,7,8,6,12.6,0,0,7,9,6,11.685714,0,12.4,0.5,1.79,Dropout_Enrolled
4,39,1,9238,1,19,133.1,1,Basic,Basic,103.5,0,0,0,0,0,0,44,0,6,0,0,0,0,0,6,0,0,0,0,13.9,-0.3,0.79,Dropout_Enrolled
2,39,1,9003,1,1,120,1,Higher,Higher,100,0,0,0,1,1,0,30,3,12,12,3,12,0,5,12,16,5,11.8,0,15.5,2.8,-4.06,Dropout_Enrolled
1,39,1,9147,1,19,100,1,Basic,Basic,132,0,0,1,0,1,0,28,0,5,7,1,11,0,0,5,9,0,0,0,10.8,1.4,1.74,Dropout_Enrolled
1,1,1,9147,1,1,130,1,Basic,Basic,131.8,1,0,0,1,0,1,19,0,5,8,2,10.5,0,0,5,11,3,13.333333,0,7.6,2.6,0.32,Dropout_Enrolled
1,39,1,9085,1,39,120,1,Basic,Basic,137.7,1,0,0,0,1,0,41,3,3,3,3,12.333333,0,2,2,2,2,11,0,12.4,0.5,1.79,Dropout_Enrolled
1,1,2,9773,1,1,133,1,Higher,Secondary,130.2,0,0,0,1,1,0,19,0,6,9,5,12.6,0,6,10,16,8,11,1,8.9,1.4,3.51,Dropout_Enrolled
1,39,1,9003,1,4,160,1,Higher,Higher,180.4,0,0,1,1,1,0,24,6,12,17,6,12.166667,0,7,12,14,10,13.3,0,12.4,0.5,1.79,Dropout_Enrolled
1,39,9,9991,0,1,120,1,Basic,Basic,144.8,0,0,0,1,1,0,28,0,5,7,4,12.75,0,0,5,7,5,14.333333,0,10.8,1.4,1.74,Dropout_Enrolled
1,1,1,9500,1,1,124,1,Basic,Basic,117.5,1,0,0,1,1,0,19,0,8,10,5,12.858,3,0,8,10,5,12.858,3,9.4,-0.8,-3.12,Dropout_Enrolled
1,1,1,9147,1,1,112,1,Secondary,Secondary,106.1,0,0,0,1,0,0,20,0,5,13,2,10,1,0,5,10,0,0,0,9.4,-0.8,-3.12,Dropout_Enrolled
2,39,1,9147,1,1,133.1,1,Basic,Basic,140,0,0,0,0,0,0,35,0,5,8,4,12.5,1,0,5,8,5,11.8,0,9.4,-0.8,-3.12,Dropout_Enrolled
1,5,1,9085,1,1,150,1,Secondary,Secondary,139.4,0,0,0,1,0,0,18,0,5,9,3,12,1,0,5,6,4,13,0,7.6,2.6,0.32,Dropout_Enrolled
1,51,1,9147,1,1,116,1,Higher,Higher,115.2,0,0,1,1,1,0,32,2,7,16,3,12,0,3,8,10,3,10.333333,0,8.9,1.4,3.51,Dropout_Enrolled
1,1,1,9119,1,1,121,1,Higher,Secondary,114,0,0,0,1,1,0,20,0,5,9,4,11.6,0,0,5,7,4,12.25,2,7.6,2.6,0.32,Dropout_Enrolled
1,1,1,9147,1,1,125,1,Secondary,Secondary,134.1,1,0,0,1,1,0,20,0,5,0,0,0,0,0,5,0,0,0,0,8.9,1.4,3.51,Dropout_Enrolled
1,1,4,9500,1,1,126,1,Basic,Basic,121.3,1,0,0,1,0,1,18,0,7,9,6,13.533333,0,0,7,7,7,12.228571,0,12.4,0.5,1.79,Dropout_Enrolled
4,39,2,9670,1,19,133.1,1,Basic,Secondary,103,0,0,0,0,1,0,34,0,6,6,0,0,0,0,6,9,0,0,0,10.8,1.4,1.74,Dropout_Enrolled
1,44,1,9003,1,39,140,1,Higher,Higher,120,1,0,0,1,1,0,22,0,6,13,5,13,0,0,6,13,2,11.5,0,12.4,0.5,1.79,Dropout_Enrolled
2,43,1,9991,0,1,134,1,Basic,Basic,113.7,0,0,0,1,0,0,32,1,5,5,5,10.2,0,0,5,9,4,11.25,0,9.4,-0.8,-3.12,Dropout_Enrolled
5,7,1,9130,1,3,160,1,Basic,Basic,160,0,0,0,0,0,0,27,1,5,8,3,14.666667,2,0,5,7,2,13,2,10.8,1.4,1.74,Dropout_Enrolled
1,44,1,9070,1,39,120,1,Secondary,Basic,120,0,0,1,0,1,0,20,0,6,11,0,0,6,0,6,12,0,0,12,16.2,0.3,-0.92,Dropout_Enrolled
4,17,5,8014,0,1,100,1,Basic,Basic,107,0,0,0,1,0,0,38,0,5,12,1,10,0,0,5,10,0,0,0,10.8,1.4,1.74,Dropout_Enrolled
1,1,1,9085,1,1,138,1,Basic,Basic,131,1,0,0,1,0,0,18,0,5,9,5,12.666667,2,0,5,7,4,13,0,9.4,-0.8,-3.12,Dropout_Enrolled
1,17,3,9147,1,1,118,1,Secondary,Basic,118,0,0,0,1,0,0,20,0,5,11,4,11,0,0,5,7,5,13.2,0,12.4,0.5,1.79,Dropout_Enrolled
1,1,3,9500,1,1,126,1,Secondary,Basic,120.1,1,0,0,1,0,0,19,0,7,12,4,13.375,0,0,7,8,6,12.116667,0,12.4,0.5,1.79,Dropout_Enrolled
1,1,2,8014,0,1,96,1,Higher,Secondary,100,0,0,0,1,0,0,20,0,6,10,5,12,0,0,6,9,4,11.25,0,9.4,-0.8,-3.12,Dropout_Enrolled
1,1,1,9238,1,1,157,1,Higher,Basic,136.7,1,0,0,1,0,0,22,0,6,11,4,12.5,1,0,6,13,3,13.666667,0,9.4,-0.8,-3.12,Dropout_Enrolled
1,39,1,9147,1,12,133.1,1,Secondary,Secondary,140,1,0,1,0,1,0,24,0,5,5,0,0,0,0,5,5,0,0,0,12.7,3.7,-1.7,Dropout_Enrolled
2,39,1,9991,0,1,110,1,Unknown,Unknown,114.6,1,0,0,1,0,0,46,0,5,5,0,0,0,0,5,5,0,0,0,7.6,2.6,0.32,Dropout_Enrolled
1,42,1,9119,1,1,120,1,Unknown,Unknown,128.2,1,0,0,1,1,0,35,6,10,12,7,11.285714,0,2,8,8,5,13,0,9.4,-0.8,-3.12,Dropout_Enrolled
1,7,1,9119,1,4,180,1,Higher,Higher,180,0,0,1,1,1,0,30,0,5,6,4,14.5,0,0,5,10,3,16.2,0,13.9,-0.3,0.79,Dropout_Enrolled
2,39,1,9773,1,19,133.1,1,Basic,Basic,110,0,0,0,0,0,0,53,0,5,5,0,0,0,0,4,5,0,0,0,15.5,2.8,-4.06,Dropout_Enrolled
1,51,1,9119,1,1,140,1,Secondary,Basic,150,0,0,0,1,1,0,23,0,5,7,2,13,0,0,5,11,1,10,0,8.9,1.4,3.51,Dropout_Enrolled
1,44,1,9003,1,39,130,1,Secondary,Secondary,130,0,0,0,1,1,0,22,4,10,21,5,11.4,1,2,7,13,6,11.666667,0,15.5,2.8,-4.06,Dropout_Enrolled
1,16,2,9147,1,1,132,1,Basic,Basic,122.6,1,0,0,1,0,1,20,0,5,8,3,12,0,0,5,9,4,12.625,0,10.8,1.4,1.74,Dropout_Enrolled
1,1,1,9500,1,1,140,1,Basic,Basic,129.9,0,0,0,1,0,0,19,0,7,0,0,0,0,0,8,0,0,0,0,16.2,0.3,-0.92,Dropout_Enrolled
1,17,1,9773,1,1,116,1,Basic,Secondary,115.7,1,0,1,0,0,0,19,0,6,6,3,11.333333,0,0,6,6,0,0,0,12.4,0.5,1.79,Dropout_Enrolled
2,39,1,8014,0,12,133.1,1,Unknown,Unknown,135,0,0,0,1,0,0,51,0,6,12,0,0,0,1,6,11,0,0,1,7.6,2.6,0.32,Dropout_Enrolled
1,1,4,9773,1,1,137,1,Basic,Basic,134.2,1,0,0,1,0,0,18,0,6,6,6,13.166667,0,0,6,8,5,14.2,0,10.8,1.4,1.74,Dropout_Enrolled
1,17,1,9119,1,1,125,1,Basic,Secondary,121.5,1,0,0,1,1,0,20,0,5,7,5,15.8,0,0,5,7,5,14.571429,0,11.1,0.6,2.02,Dropout_Enrolled
1,17,1,9853,1,1,134,1,Secondary,Basic,122.5,1,0,0,1,0,0,22,0,6,10,5,13.166667,0,0,6,8,5,12.4,0,15.5,2.8,-4.06,Dropout_Enrolled
1,1,1,9500,1,1,135,1,Basic,Basic,126.8,1,0,0,1,1,0,19,0,7,9,0,0,0,0,7,8,0,0,0,15.5,2.8,-4.06,Dropout_Enrolled
1,39,1,8014,0,1,120,1,Basic,Secondary,95,1,0,0,1,0,0,24,0,6,8,5,11.4,0,0,6,8,5,11.8,0,15.5,2.8,-4.06,Dropout_Enrolled
1,39,1,9003,1,1,130,1,Basic,Basic,100,0,0,1,0,1,0,28,4,10,19,8,11.888889,0,2,8,17,5,11.6,1,15.5,2.8,-4.06,Dropout_Enrolled
2,1,1,9147,1,1,151,1,Basic,Basic,132.1,1,0,0,1,0,0,34,0,5,7,2,10,0,0,5,6,4,12,0,7.6,2.6,0.32,Dropout_Enrolled
1,1,1,9238,1,1,125,1,Basic,Basic,118.7,0,0,0,1,1,0,20,0,6,12,4,11.75,0,0,6,13,3,11.333333,0,15.5,2.8,-4.06,Dropout_Enrolled
1,39,1,9130,1,40,129,1,Higher,Higher,155.3,1,0,0,1,0,0,27,0,6,9,5,13,0,5,11,13,10,12.9,0,12.4,0.5,1.79,Dropout_Enrolled
1,1,1,9147,1,1,120,1,Unknown,Unknown,111.6,0,0,1,1,1,1,21,0,5,5,5,12.6,0,0,5,9,3,12.833333,0,10.8,1.4,1.74,Dropout_Enrolled
1,51,1,9853,1,1,139,1,Secondary,Secondary,134,0,0,0,1,0,0,21,0,6,0,0,0,0,0,6,0,0,0,0,12.4,0.5,1.79,Dropout_Enrolled
1,1,4,171,1,1,127,1,Secondary,Secondary,124.2,1,0,0,0,0,0,19,0,0,0,0,0,0,0,0,0,0,0,0,9.4,-0.8,-3.12,Dropout_Enrolled
1,1,1,9238,1,1,135,1,Basic,Basic,121.7,1,0,0,1,0,1,18,0,6,14,0,0,0,0,6,9,4,11,0,7.6,2.6,0.32,Dropout_Enrolled
1,17,3,9085,1,1,128,1,Secondary,Basic,124.2,0,0,0,0,0,0,21,0,5,8,2,11.5,0,0,5,7,2,10.5,0,7.6,2.6,0.32,Dropout_Enrolled
1,7,1,9130,1,2,133.1,6,Higher,Secondary,100,0,0,0,1,1,0,35,0,7,8,0,0,1,0,6,9,0,0,0,8.9,1.4,3.51,Dropout_Enrolled
1,1,6,9773,1,1,133.1,1,Secondary,Secondary,129.6,0,0,0,1,0,0,22,0,6,0,0,0,0,0,6,0,0,0,0,7.6,2.6,0.32,Dropout_Enrolled
1,1,1,9147,1,1,128,1,Secondary,Secondary,116.5,0,0,0,1,1,0,19,0,5,8,2,10,0,0,5,8,1,16,0,7.6,2.6,0.32,Dropout_Enrolled
1,44,1,9130,1,39,110,1,Higher,Higher,110,1,0,0,1,1,0,20,0,6,15,4,10.75,0,0,6,12,2,10.5,0,13.9,-0.3,0.79,Dropout_Enrolled
1,17,5,9500,1,1,130,1,Basic,Secondary,128.8,1,0,0,1,0,0,18,0,7,8,6,13.39,0,0,8,10,7,12.757143,0,11.1,0.6,2.02,Dropout_Enrolled
1,17,2,9254,1,1,107,1,Secondary,Basic,102.8,1,0,0,1,0,0,20,0,6,16,1,10,0,0,6,12,0,0,0,10.8,1.4,1.74,Dropout_Enrolled
1,39,1,9670,1,1,133.1,1,Basic,Basic,100.2,1,0,0,0,0,0,26,0,6,9,3,11.75,0,0,6,11,4,11.5,3,16.2,0.3,-0.92,Dropout_Enrolled
1,1,1,171,1,1,122,1,Basic,Basic,115.7,1,0,0,1,0,0,20,0,0,0,0,0,0,0,0,0,0,0,0,9.4,-0.8,-3.12,Dropout_Enrolled
1,43,1,9119,1,1,133.1,1,Secondary,Secondary,136,0,0,0,1,1,0,31,0,5,12,1,12,0,0,5,9,1,11,4,16.2,0.3,-0.92,Dropout_Enrolled
1,1,1,9119,1,1,148,1,Basic,Basic,129.8,0,0,0,0,1,1,18,0,5,6,5,15,0,0,5,6,5,14.2,0,8.9,1.4,3.51,Dropout_Enrolled
1,39,1,9254,1,1,133.1,1,Basic,Basic,121.5,0,0,0,1,1,0,54,0,6,9,6,13.714286,0,0,6,13,5,14.333333,0,16.2,0.3,-0.92,Dropout_Enrolled
1,1,1,9991,0,1,140,1,Basic,Basic,124.6,0,0,0,1,0,0,29,0,5,11,5,11.4,0,0,5,10,4,10.25,0,15.5,2.8,-4.06,Dropout_Enrolled
1,17,1,9670,1,1,115,1,Basic,Basic,109.1,0,0,1,0,1,0,21,0,6,11,4,12.25,0,0,6,9,4,13.4,0,11.1,0.6,2.02,Dropout_Enrolled
1,1,1,9147,1,1,140,1,Basic,Basic,129.2,1,0,0,1,0,0,26,0,5,6,0,0,0,0,5,0,0,0,0,15.5,2.8,-4.06,Dropout_Enrolled
4,43,4,9991,0,12,133.1,1,Basic,Basic,153,0,0,0,0,0,0,40,0,5,10,0,0,0,0,5,5,0,0,0,7.6,2.6,0.32,Dropout_Enrolled
1,44,1,9119,1,39,140,1,Secondary,Basic,140,1,0,0,1,1,0,22,0,5,9,0,0,0,0,5,6,2,11.666667,0,10.8,1.4,1.74,Dropout_Enrolled
1,17,1,9119,1,1,130,1,Basic,Basic,119.9,1,0,1,1,1,0,20,0,5,5,0,0,0,0,5,5,0,0,5,9.4,-0.8,-3.12,Dropout_Enrolled
1,17,2,9238,1,1,133,1,Higher,Secondary,136.2,1,0,0,1,0,0,19,0,6,14,1,11.5,0,0,6,12,2,10.5,0,7.6,2.6,0.32,Dropout_Enrolled
1,1,1,9238,1,1,127,1,Higher,Higher,115.8,1,0,0,1,1,0,19,0,6,11,3,12,0,0,6,12,2,10,0,11.1,0.6,2.02,Dropout_Enrolled
1,1,1,9773,1,1,125,1,Higher,Higher,119.1,1,0,0,1,0,0,22,0,6,13,2,12,0,0,6,14,1,10,0,9.4,-0.8,-3.12,Dropout_Enrolled
1,1,2,9070,1,1,121,1,Higher,Secondary,120.7,1,0,0,1,0,0,18,0,6,8,4,10.75,0,0,6,9,0,0,0,9.4,-0.8,-3.12,Dropout_Enrolled
1,39,1,9670,1,1,120,1,Basic,Basic,140,0,0,0,1,1,0,24,0,6,15,4,10.5,0,0,6,16,4,12.5,0,15.5,2.8,-4.06,Dropout_Enrolled
2,44,1,9991,0,39,130,1,Secondary,Basic,130,0,0,0,0,0,0,21,0,5,12,3,11.333333,0,0,5,10,1,13,0,15.5,2.8,-4.06,Dropout_Enrolled
1,1,3,9773,1,1,146,1,Basic,Basic,134.1,1,0,0,1,1,1,18,0,6,6,6,12.5,0,0,6,7,6,12.666667,0,10.8,1.4,1.74,Dropout_Enrolled
2,39,1,8014,0,1,120,1,Unknown,Unknown,101.8,0,0,0,0,0,0,32,0,5,5,0,0,0,0,5,10,0,0,0,10.8,1.4,1.74,Dropout_Enrolled
1,1,3,9500,1,1,136,1,Secondary,Secondary,127,1,0,0,1,0,0,19,0,8,10,1,13.67,7,0,8,10,1,13.67,7,9.4,-0.8,-3.12,Dropout_Enrolled
1,39,1,9003,1,1,130,1,Basic,Basic,120,1,0,0,1,1,0,28,7,13,19,8,11.625,0,5,10,17,6,11,0,15.5,2.8,-4.06,Dropout_Enrolled
1,1,1,9670,1,1,113,1,Basic,Basic,110.2,1,0,0,1,0,0,22,0,5,7,3,12.666667,0,0,5,6,4,12,0,7.6,2.6,0.32,Dropout_Enrolled
1,1,5,9070,1,1,117,1,Basic,Basic,131,1,0,1,0,1,0,21,0,6,6,1,14,0,0,6,7,0,0,7,9.4,-0.8,-3.12,Dropout_Enrolled
1,39,1,9556,1,1,133.1,1,Higher,Higher,115.5,0,0,0,1,0,0,36,0,7,13,5,12.2,0,0,7,14,3,11.4,0,11.1,0.6,2.02,Dropout_Enrolled
1,17,1,9238,1,1,125,1,Secondary,Basic,119.8,0,0,0,1,0,0,18,0,6,0,0,0,0,0,6,0,0,0,0,11.1,0.6,2.02,Dropout_Enrolled
1,17,2,9853,1,1,141,1,Higher,Secondary,130.2,1,0,0,1,0,0,19,0,6,8,5,11.4,1,0,6,7,4,10.75,0,12.7,3.7,-1.7,Dropout_Enrolled
1,17,3,9147,1,1,122,1,Higher,Basic,116.1,1,0,1,1,1,0,19,0,5,10,4,11,0,0,5,13,2,12,0,8.9,1.4,3.51,Dropout_Enrolled
1,1,1,9500,1,1,138,1,Basic,Secondary,127.5,1,0,0,1,0,0,19,0,7,10,5,12.94,0,0,7,7,5,13.76,0,16.2,0.3,-0.92,Dropout_Enrolled
1,17,1,9853,1,1,119,1,Basic,Basic,125,1,0,0,1,0,1,21,0,6,9,5,12,0,0,6,8,5,11.2,0,10.8,1.4,1.74,Dropout_Enrolled
1,17,1,9147,1,1,137,1,Secondary,Basic,131.4,1,0,0,1,1,0,22,0,5,8,2,10,0,0,5,7,1,10,0,7.6,2.6,0.32,Dropout_Enrolled
1,1,1,9147,1,1,129,1,Basic,Basic,121,1,0,0,1,0,0,18,0,5,8,2,10.5,0,0,5,7,3,12.333333,0,7.6,2.6,0.32,Dropout_Enrolled
1,44,1,9003,1,39,120,1,Secondary,Basic,120,0,0,0,1,1,0,23,1,6,6,1,11,0,0,6,8,0,0,0,15.5,2.8,-4.06,Dropout_Enrolled
1,43,1,9991,0,1,141,1,Basic,Basic,131.9,0,0,0,1,0,0,21,6,10,20,6,11.5,0,5,10,17,5,12.4,0,9.4,-0.8,-3.12,Dropout_Enrolled
1,17,1,9147,1,1,129,1,Basic,Basic,132.9,1,0,0,1,0,0,19,0,5,5,3,11.666667,0,0,5,10,4,10.8,0,9.4,-0.8,-3.12,Dropout_Enrolled
1,1,1,9670,1,1,133.1,1,Basic,Basic,138,0,0,1,1,1,0,22,0,6,8,6,12.625,0,0,6,11,2,14.5,0,11.1,0.6,2.02,Dropout_Enrolled
1,1,1,9238,1,1,134,1,Secondary,Basic,129.8,0,0,0,1,0,1,20,0,6,6,6,11.666667,0,0,6,8,6,11.166667,0,15.5,2.8,-4.06,Graduate
1,43,1,9238,1,1,149,1,Basic,Basic,130.5,1,0,0,1,0,0,28,8,11,11,9,11.666667,0,8,11,13,9,12.555556,0,10.8,1.4,1.74,Graduate
1,17,2,9254,1,1,132,1,Basic,Basic,122.6,1,0,0,1,0,1,20,0,6,6,6,13.166667,0,0,6,6,6,14,0,13.9,-0.3,0.79,Graduate
1,5,5,9254,1,1,122,1,Secondary,Basic,119.6,1,0,0,1,0,1,19,0,6,6,6,12.333333,0,0,6,6,6,12.833333,0,12.4,0.5,1.79,Graduate
1,1,1,171,1,1,156,1,Higher,Higher,147.7,1,0,0,1,0,0,21,6,12,12,12,15.333333,0,4,11,15,11,15,0,8.9,1.4,3.51,Graduate
1,1,1,9853,1,1,133,1,Basic,Basic,124.6,1,0,0,1,0,1,18,0,6,8,5,13,0,0,6,9,5,13.5,0,9.4,-0.8,-3.12,Graduate
1,17,1,9500,1,1,150,1,Basic,Basic,130.3,0,0,0,1,0,1,19,0,8,8,7,15.114286,0,0,8,8,7,15.114286,0,12.7,3.7,-1.7,Graduate
1,17,3,9254,1,1,118,1,Basic,Secondary,115.9,1,0,0,1,1,1,18,0,6,7,6,12.142857,0,0,6,8,6,11.333333,0,8.9,1.4,3.51,Graduate
1,1,4,9085,1,1,145,1,Basic,Secondary,145,1,0,0,1,0,1,19,0,5,7,4,14.5,0,0,5,5,5,13.6,0,10.8,1.4,1.74,Graduate
1,7,1,9238,1,40,130,1,Basic,Basic,130,0,0,0,1,1,0,37,11,16,23,15,11.733333,0,6,11,17,9,11.888889,0,15.5,2.8,-4.06,Graduate
1,17,1,9238,1,1,145,1,Basic,Basic,138,1,0,0,1,0,0,20,0,6,11,5,11.2,0,0,6,6,6,12,0,9.4,-0.8,-3.12,Graduate
1,1,1,9130,1,1,160,1,Higher,Higher,155.1,1,0,0,1,0,0,20,0,5,5,5,16.4,0,0,5,5,5,14.6,0,12.7,3.7,-1.7,Graduate
1,51,1,9085,1,1,127,1,Higher,Higher,138.8,1,0,0,1,0,0,22,4,12,19,11,14.153846,0,5,12,20,12,15.428571,0,8.9,1.4,3.51,Graduate
1,42,1,9500,1,1,100,1,Basic,Basic,100,1,0,0,1,0,1,19,0,8,8,7,13.058571,0,0,8,8,7,13.058571,0,10.8,1.4,1.74,Graduate
1,1,3,9147,1,1,133,1,Basic,Basic,119.7,1,0,0,1,1,0,19,0,5,8,5,13.25,0,0,5,6,5,11.833333,0,13.9,-0.3,0.79,Graduate
1,53,1,9147,1,42,130,1,Secondary,Basic,133.8,1,0,0,1,0,0,21,6,11,17,11,11.545455,0,3,9,13,8,12.888889,0,8.9,1.4,3.51,Graduate
1,1,3,9500,1,1,135,1,Basic,Basic,126.3,1,0,1,1,0,1,18,0,7,8,7,12.65,0,0,8,9,8,12.445556,0,15.5,2.8,-4.06,Graduate
1,17,1,9500,1,1,135,1,Basic,Basic,129.2,0,0,0,1,0,1,18,0,7,7,7,14.145714,0,0,8,9,8,13.627778,0,11.1,0.6,2.02,Graduate
1,42,1,9085,1,1,133.1,1,Secondary,Secondary,128.2,0,0,0,1,0,0,24,5,11,29,9,12,6,4,10,21,9,12.555556,0,9.4,-0.8,-3.12,Graduate
1,15,1,9147,1,1,130,26,Secondary,Secondary,130,0,0,0,1,0,0,19,0,5,10,4,12,0,0,5,6,5,11.4,0,11.1,0.6,2.02,Graduate
1,1,1,9238,1,1,126,1,Basic,Basic,126.7,1,0,0,1,0,0,19,0,6,11,4,12.75,0,0,6,7,6,11.333333,0,7.6,2.6,0.32,Graduate
1,1,1,9070,1,1,135,1,Basic,Basic,128,1,0,0,1,0,1,19,0,6,6,6,14,0,0,6,8,6,13.125,0,10.8,1.4,1.74,Graduate
1,1,1,9238,1,1,168,1,Basic,Basic,149.5,0,0,0,1,0,0,18,0,6,10,6,17,0,0,6,11,6,16,0,12.4,0.5,1.79,Graduate
1,1,1,9500,1,1,118,1,Basic,Basic,117.8,0,0,0,1,0,1,19,0,7,7,7,13.7,0,0,8,9,7,14.671429,0,12.4,0.5,1.79,Graduate
1,17,1,9130,1,1,156,1,Higher,Secondary,166.9,0,0,0,1,0,0,18,0,5,9,4,11.25,0,0,5,6,4,12.5,0,7.6,2.6,0.32,Graduate
1,17,6,9773,1,1,141,1,Basic,Basic,127.7,1,0,0,1,1,0,18,0,6,6,6,15.166667,0,0,6,6,6,14.833333,0,9.4,-0.8,-3.12,Graduate
1,1,1,9085,1,1,120,1,Basic,Basic,112.7,0,0,0,1,1,0,19,0,6,7,6,14.857143,0,0,6,8,6,14.142857,0,11.1,0.6,2.02,Graduate
1,17,1,9085,1,1,134,1,Basic,Basic,120.4,1,0,0,1,1,0,18,0,6,10,6,14.7,0,0,6,10,6,12,0,16.2,0.3,-0.92,Graduate
1,17,1,9670,1,1,118,1,Basic,Basic,113.5,1,0,0,1,0,1,19,0,6,9,5,13.5,0,0,6,6,6,14,0,12.4,0.5,1.79,Graduate
1,16,4,9238,1,1,135,1,Basic,Basic,121,1,0,0,1,0,0,18,0,6,8,5,13,0,0,6,7,6,11.833333,0,10.8,1.4,1.74,Graduate
1,17,2,9238,1,3,105,1,Basic,Basic,129.7,1,0,0,1,0,1,20,0,6,6,6,12.333333,0,0,6,6,6,10.666667,0,9.4,-0.8,-3.12,Graduate
1,18,1,9254,1,1,137,1,Basic,Basic,126.9,0,0,0,1,1,0,20,0,6,7,6,13.857143,0,0,6,7,5,12.8,0,16.2,0.3,-0.92,Graduate
1,1,3,171,1,1,139,1,Basic,Basic,142.2,1,0,0,1,1,1,20,6,12,12,12,14.583333,0,4,11,14,11,14.333333,0,8.9,1.4,3.51,Graduate
1,17,5,9773,1,1,111,1,Basic,Secondary,115.9,1,0,0,1,0,0,22,0,6,7,6,13.571429,0,0,6,7,6,15.285714,0,13.9,-0.3,0.79,Graduate
1,44,1,9085,1,39,140,1,Secondary,Basic,140,0,0,0,1,0,0,21,2,6,9,6,13.142857,0,0,6,9,6,12.166667,0,13.9,-0.3,0.79,Graduate
1,17,4,9070,1,1,126,1,Secondary,Basic,120.4,1,0,0,1,0,0,18,0,6,8,5,11.8,0,0,6,7,5,10.4,1,16.2,0.3,-0.92,Graduate
1,42,1,9500,1,6,141,1,Basic,Secondary,145,0,0,0,1,0,0,21,12,21,33,18,14.933333,12,12,21,33,18,14.933333,12,7.6,2.6,0.32,Graduate
1,16,1,9500,1,1,133.1,1,Basic,Basic,95,1,0,0,1,0,0,20,0,7,7,6,13.755,0,0,8,9,7,13.571429,0,12.4,0.5,1.79,Graduate
1,39,1,9991,0,1,120,1,Basic,Basic,111.1,0,0,0,1,0,0,31,0,5,8,4,11,0,0,5,6,5,11.2,0,7.6,2.6,0.32,Graduate
1,16,2,9238,1,1,126,1,Basic,Basic,127.1,1,0,0,1,0,1,19,0,6,14,3,12.666667,0,0,6,7,6,11,0,9.4,-0.8,-3.12,Graduate
1,17,1,9238,1,1,131,1,Secondary,Secondary,129.3,0,0,0,1,0,0,19,4,8,8,8,13.875,0,1,6,8,5,14,0,11.1,0.6,2.02,Graduate
1,1,2,9500,1,1,149,1,Basic,Basic,126.5,1,0,0,1,0,0,18,0,8,8,7,12.914286,0,0,8,8,7,12.914286,0,12.7,3.7,-1.7,Graduate
2,43,1,9670,1,1,100,1,Unknown,Unknown,128.2,0,0,0,1,1,0,32,6,10,12,10,11.4,0,4,9,9,4,11.5,0,7.6,2.6,0.32,Graduate
1,1,1,171,1,1,151,1,Basic,Basic,147.5,1,0,0,1,0,0,18,0,0,0,0,0,0,0,0,0,0,0,0,7.6,2.6,0.32,Graduate
1,1,1,9238,1,1,148,1,Basic,Basic,143.5,0,0,0,1,0,0,18,0,6,6,6,13,0,0,6,6,6,12.833333,0,10.8,1.4,1.74,Graduate
1,44,1,9003,1,39,160,1,Higher,Higher,160,1,0,0,1,1,0,20,0,6,7,6,14,0,0,6,7,6,14.666667,0,12.4,0.5,1.79,Graduate
1,15,1,9238,1,1,150,26,Higher,Basic,132.5,1,0,0,0,0,0,20,0,6,9,5,13,0,0,6,7,6,13.5,0,13.9,-0.3,0.79,Graduate
1,1,2,9070,1,1,135,1,Basic,Basic,134,1,0,0,1,0,1,22,0,6,10,5,10.8,0,0,6,7,5,12.8,0,12.7,3.7,-1.7,Graduate
1,1,6,9500,1,1,127,1,Secondary,Basic,120.2,1,0,0,1,0,1,19,0,7,7,7,12.765714,0,0,8,9,8,13.544444,0,12.4,0.5,1.79,Graduate
1,17,5,9500,1,1,147,1,Basic,Secondary,138.5,1,0,0,1,0,0,19,0,8,8,8,14.34125,0,0,8,8,8,14.34125,0,9.4,-0.8,-3.12,Graduate
1,44,1,9003,1,39,160,1,Basic,Basic,160,0,0,1,1,0,1,19,0,6,8,6,13,0,0,6,11,5,13,0,15.5,2.8,-4.06,Graduate
1,17,1,9670,1,1,132,1,Secondary,Secondary,119.4,1,0,0,1,0,1,18,0,6,7,6,13.833333,0,0,6,11,6,13.5,0,8.9,1.4,3.51,Graduate
1,1,3,9773,1,1,150,1,Basic,Basic,146.5,1,0,0,1,0,1,20,0,6,6,6,13.5,0,0,6,7,6,12.666667,0,11.1,0.6,2.02,Graduate
1,1,2,9500,1,1,115,1,Basic,Basic,108.4,1,0,0,1,0,1,20,0,7,8,7,11.9625,0,0,8,9,8,13.044444,0,13.9,-0.3,0.79,Graduate
1,1,2,9238,1,1,129,1,Basic,Secondary,129.4,1,0,0,1,0,0,18,0,6,7,6,12.333333,0,0,6,7,6,12.166667,0,9.4,-0.8,-3.12,Graduate
1,7,1,9500,1,3,140,1,Secondary,Basic,140,0,0,0,1,0,0,30,0,8,8,7,15.675714,0,0,8,8,7,15.675714,0,10.8,1.4,1.74,Graduate
1,39,1,9085,1,3,150,1,Higher,Higher,173.3,1,0,0,1,0,0,25,1,6,7,6,16.857143,0,1,6,6,6,16.5,0,13.9,-0.3,0.79,Graduate
1,1,2,9853,1,1,127,1,Basic,Basic,137.5,1,0,0,1,0,0,21,0,6,7,6,13.428571,0,0,6,8,6,13.142857,0,7.6,2.6,0.32,Graduate
1,17,4,9500,1,1,148,1,Higher,Basic,131.9,1,0,0,1,0,1,18,0,7,8,7,14.15,0,0,8,8,8,14.51125,0,15.5,2.8,-4.06,Graduate
1,7,1,9991,0,3,130,1,Higher,Basic,133.9,0,0,0,1,0,0,28,0,5,7,5,13.714286,0,0,5,7,5,13.142857,0,16.2,0.3,-0.92,Graduate
1,17,1,9670,1,1,120,1,Basic,Basic,113.4,1,0,0,1,1,1,19,0,6,6,6,13.333333,0,0,6,7,6,13.285714,0,8.9,1.4,3.51,Graduate
1,17,1,9773,1,1,120,1,Basic,Basic,117.9,1,0,0,1,0,1,21,0,6,6,5,13,0,0,6,7,6,12.833333,0,8.9,1.4,3.51,Graduate
1,39,1,9500,1,19,133.1,1,Basic,Basic,106,1,0,0,1,1,0,24,0,7,7,6,12.666667,1,0,7,7,6,12.666667,1,7.6,2.6,0.32,Graduate
1,17,2,171,1,1,131,1,Higher,Secondary,148.9,1,0,0,1,0,0,20,0,0,0,0,0,0,0,0,0,0,0,0,9.4,-0.8,-3.12,Graduate
1,39,1,9991,0,1,120,1,Basic,Basic,160,0,0,0,1,1,0,40,0,5,5,5,11,0,0,5,5,5,13.4,0,15.5,2.8,-4.06,Graduate
1,44,1,9070,1,39,150,1,Secondary,Basic,147.7,0,0,1,1,0,1,22,2,7,7,7,13.571429,0,5,9,9,9,13.777778,0,12.4,0.5,1.79,Graduate
1,39,1,8014,0,1,130,1,Basic,Basic,120,0,0,0,1,0,0,58,0,6,14,5,12.4,0,0,6,10,5,11.6,0,9.4,-0.8,-3.12,Graduate
1,1,4,9500,1,1,126,1,Basic,Basic,125,1,0,0,1,0,0,19,0,7,8,6,11.658333,0,0,8,11,6,12.416667,0,12.4,0.5,1.79,Graduate
4,39,1,9254,1,1,120,1,Basic,Basic,95,0,0,0,1,0,1,36,0,6,10,6,11,0,0,6,14,3,11.333333,0,10.8,1.4,1.74,Graduate
1,17,5,9500,1,1,124,1,Higher,Basic,119.8,0,0,0,1,1,0,19,0,8,11,7,13.867143,0,0,8,11,7,13.867143,0,10.8,1.4,1.74,Graduate
1,1,1,9238,1,1,128,1,Basic,Basic,120,0,0,0,1,0,1,18,0,6,8,6,13.5,0,0,6,9,6,12.833333,0,11.1,0.6,2.02,Graduate
1,17,2,9238,1,1,139,1,Higher,Higher,132.7,1,0,0,1,0,0,19,0,6,7,6,11.166667,0,0,6,9,6,11.666667,0,9.4,-0.8,-3.12,Graduate
1,44,1,9238,1,39,140,41,Secondary,Secondary,137.5,0,0,1,1,0,1,23,3,6,7,6,13.142857,0,2,6,6,6,14,0,12.4,0.5,1.79,Graduate
1,43,1,8014,0,1,161,1,Basic,Basic,100,0,0,0,1,1,0,44,9,13,18,13,11.846154,0,9,11,11,11,12,0,12.7,3.7,-1.7,Graduate
1,17,1,9238,1,1,138,1,Basic,Basic,134.2,1,0,0,1,0,1,18,0,6,6,6,15.166667,0,0,6,7,6,14.142857,0,11.1,0.6,2.02,Graduate
1,1,1,9853,1,1,140,1,Basic,Basic,145.3,0,0,0,1,0,0,18,0,6,6,6,13.666667,0,0,6,9,6,12.333333,0,7.6,2.6,0.32,Graduate
1,17,4,9500,1,1,140,1,Basic,Basic,133.3,1,0,0,1,0,0,19,0,7,7,6,11.966667,0,0,7,7,6,11.966667,0,7.6,2.6,0.32,Graduate
1,17,2,9500,1,1,135,1,Secondary,Basic,133.5,1,0,0,1,0,0,19,0,8,8,8,13.3425,0,0,8,8,8,13.3425,0,9.4,-0.8,-3.12,Graduate
5,7,1,9991,0,2,120,1,Basic,Basic,120,0,0,0,1,0,0,46,6,8,12,8,12.375,0,4,9,11,5,12.4,0,8.9,1.4,3.51,Graduate
1,1,1,9500,1,1,131,1,Higher,Higher,120.5,0,0,0,1,0,0,19,0,7,7,6,14.15,0,0,7,7,6,14.15,0,7.6,2.6,0.32,Graduate
1,53,1,9003,1,42,140,1,Higher,Basic,135.3,0,0,0,1,1,0,21,7,12,18,11,12.090909,0,5,12,14,11,12,0,8.9,1.4,3.51,Graduate
1,17,4,9238,1,1,123,1,Basic,Basic,116,1,0,0,1,0,1,18,0,6,9,6,11.666667,0,0,6,8,6,11.666667,0,8.9,1.4,3.51,Graduate
1,17,6,9500,1,1,143,1,Secondary,Basic,129.9,0,0,0,1,0,1,20,3,7,7,7,13.914286,0,5,8,8,8,14.10625,0,11.1,0.6,2.02,Graduate
1,39,1,9556,1,1,133.1,1,Basic,Basic,100,1,0,0,1,0,1,25,0,7,11,5,12.58,0,0,7,9,6,12.157143,0,8.9,1.4,3.51,Graduate
1,17,4,9500,1,1,136,1,Higher,Higher,132.5,1,0,0,1,0,0,19,0,7,8,7,13.198571,0,0,8,8,8,13.0625,0,11.1,0.6,2.02,Graduate
1,1,1,9500,1,1,110,1,Basic,Basic,105.8,1,0,0,1,1,0,22,0,7,8,6,14.333333,0,0,8,9,7,13.771429,0,11.1,0.6,2.02,Graduate
1,43,1,9500,1,1,140,1,Basic,Basic,138.6,0,0,0,1,0,1,19,0,7,9,6,14.25,0,0,8,11,8,13.063636,0,16.2,0.3,-0.92,Graduate
2,43,1,9147,1,1,130,1,Basic,Basic,138,0,0,0,1,0,0,34,12,15,17,12,11.916667,0,11,13,13,11,13.181818,0,7.6,2.6,0.32,Graduate
1,1,3,9773,1,1,110,1,Basic,Basic,105.5,1,0,0,1,0,0,19,0,6,6,6,13,0,0,6,8,5,12.4,0,12.4,0.5,1.79,Graduate
1,39,1,9119,1,1,120,1,Basic,Basic,98.7,0,0,0,1,1,1,28,0,5,12,3,10,0,0,5,10,3,12.4,0,12.4,0.5,1.79,Graduate
1,1,1,9500,1,1,141,1,Secondary,Basic,131.9,1,0,0,1,0,1,18,0,7,7,7,15.101429,0,0,8,8,8,16.09375,0,11.1,0.6,2.02,Graduate
1,1,2,9670,1,1,160,1,Higher,Secondary,137.3,1,0,0,1,0,0,19,0,6,7,5,13.4,0,0,6,6,5,12.8,0,12.7,3.7,-1.7,Graduate
4,39,1,9991,0,1,120,1,Basic,Basic,113.9,1,0,0,1,0,0,39,0,5,8,5,11,0,0,5,5,5,11.6,0,7.6,2.6,0.32,Graduate
1,1,1,9500,1,1,140,1,Secondary,Basic,128.8,0,0,0,1,1,0,18,0,7,7,6,13.391667,0,0,8,8,8,12.4875,0,12.4,0.5,1.79,Graduate
1,17,4,9556,1,1,112,1,Secondary,Secondary,107.1,1,0,0,1,0,0,20,0,7,7,7,12.5,0,0,8,8,8,13.1375,0,12.4,0.5,1.79,Graduate
4,39,1,8014,0,19,133.1,1,Basic,Basic,113.5,0,0,0,1,0,1,39,0,6,6,6,13.833333,0,0,6,6,6,15.5,0,11.1,0.6,2.02,Graduate
1,44,1,9085,1,39,140,1,Secondary,Basic,140,1,0,0,1,0,0,21,2,6,7,6,13,0,1,6,15,4,12.8,0,12.4,0.5,1.79,Graduate
1,1,2,9070,1,1,137,1,Basic,Basic,127.2,1,0,0,1,0,1,20,1,6,9,5,13.4,1,0,6,9,6,12.375,0,13.9,-0.3,0.79,Graduate
1,1,1,9238,1,1,132,1,Secondary,Basic,127.1,1,0,0,1,0,1,20,0,6,9,6,12.333333,0,0,6,6,6,11.833333,0,8.9,1.4,3.51,Graduate
1,17,2,9773,1,1,133.1,41,Basic,Secondary,105,1,0,0,0,0,0,21,0,6,6,6,14,0,0,6,6,6,13.5,0,8.9,1.4,3.51,Graduate
1,43,1,9500,1,1,150,1,Basic,Basic,130.8,1,0,0,1,0,1,21,0,8,8,7,14.428571,0,0,8,8,7,14.428571,0,12.7,3.7,-1.7,Graduate
1,18,1,9119,1,1,108,1,Secondary,Secondary,105.6,1,0,0,1,1,0,20,0,5,7,5,12.166667,0,0,5,7,5,15.285714,0,12.4,0.5,1.79,Graduate
1,17,4,9500,1,1,137,1,Secondary,Basic,121.3,1,0,0,1,1,1,18,0,8,8,7,15.07,0,0,8,8,7,15.07,0,10.8,1.4,1.74,Graduate
1,17,5,9853,1,1,132,1,Basic,Basic,119.1,1,0,0,1,0,1,19,0,6,10,5,12,0,0,6,9,5,10.8,0,9.4,-0.8,-3.12,Graduate
1,1,2,9773,1,1,143,1,Secondary,Secondary,144.1,1,0,0,1,1,1,19,0,6,7,6,13.666667,0,0,6,6,6,13.833333,0,12.7,3.7,-1.7,Graduate
1,17,1,9003,1,1,131,1,Basic,Secondary,134.5,1,0,0,1,0,1,19,0,6,7,6,15,0,0,6,8,6,14.333333,0,12.4,0.5,1.79,Graduate
1,51,1,9085,1,1,125,1,Secondary,Secondary,120,0,0,0,1,0,0,22,0,6,8,6,14.833333,0,0,6,10,5,13.833333,0,11.1,0.6,2.02,Graduate
1,1,2,9254,1,1,132,1,Secondary,Basic,129.9,1,0,0,1,0,1,19,0,6,8,6,13,0,0,6,6,6,12.166667,0,8.9,1.4,3.51,Graduate
1,17,1,9500,1,1,137,1,Basic,Basic,124.9,0,0,0,1,0,1,19,0,7,11,6,13.8875,0,0,8,9,8,14.864444,0,15.5,2.8,-4.06,Graduate
1,1,1,171,1,1,168,1,Basic,Basic,155.1,1,0,1,0,1,1,18,0,0,0,0,0,0,0,0,0,0,0,0,12.7,3.7,-1.7,Graduate
1,1,4,171,1,1,131,1,Secondary,Secondary,149.9,1,0,0,1,1,0,18,0,0,0,0,0,0,0,0,0,0,0,0,11.1,0.6,2.02,Graduate
1,1,1,171,1,1,134,1,Basic,Basic,136.1,1,0,0,1,1,0,19,0,0,0,0,0,0,0,0,0,0,0,0,9.4,-0.8,-3.12,Graduate
2,39,1,9500,1,3,130,1,Secondary,Secondary,126,0,0,0,1,1,0,32,0,7,7,7,13.628571,0,0,8,8,8,13.9125,0,13.9,-0.3,0.79,Graduate
1,17,4,9500,1,1,132,1,Basic,Basic,125.5,0,0,0,1,0,1,19,0,7,8,6,13.58,0,0,8,8,8,12.93625,0,15.5,2.8,-4.06,Graduate
4,39,1,9773,1,19,133.1,1,Basic,Basic,117.5,0,0,0,1,0,0,39,0,6,10,4,11.25,0,0,6,6,6,11.333333,0,10.8,1.4,1.74,Graduate
1,1,1,9500,1,1,143,1,Basic,Basic,140,0,0,0,1,1,0,19,0,8,8,7,14.285714,0,0,8,8,7,14.285714,0,12.7,3.7,-1.7,Graduate
1,17,1,9085,1,1,140,1,Basic,Basic,129.9,0,0,0,1,0,0,19,0,5,11,4,13.6,2,0,5,9,4,12.2,0,9.4,-0.8,-3.12,Graduate
1,1,1,9500,1,1,132,1,Basic,Basic,128,1,0,0,1,0,1,19,0,7,7,6,12.966667,0,0,7,7,6,12.966667,0,7.6,2.6,0.32,Graduate
2,39,1,8014,0,1,120,1,Basic,Basic,117,0,0,0,1,1,0,33,0,6,8,6,12,0,0,6,6,6,11.666667,0,10.8,1.4,1.74,Graduate
1,17,1,9238,1,1,133,1,Basic,Basic,123.6,0,0,0,1,0,1,19,0,6,7,6,13.5,0,0,6,7,6,14,0,15.5,2.8,-4.06,Graduate
2,39,2,8014,0,1,100,1,Unknown,Unknown,100,1,0,0,1,0,0,41,0,6,9,5,11.8,0,1,6,10,3,10.666667,1,7.6,2.6,0.32,Graduate
1,18,1,9500,1,1,135,1,Secondary,Basic,127.5,1,0,0,1,0,1,19,0,7,8,6,13.741667,0,0,8,9,7,14.9125,0,16.2,0.3,-0.92,Graduate
1,1,1,171,1,1,138,1,Secondary,Higher,147.5,1,0,0,1,0,1,19,6,12,12,12,13.666667,0,4,11,12,11,14.166667,0,8.9,1.4,3.51,Graduate
1,1,1,8014,0,1,128,1,Basic,Basic,122.1,0,0,0,1,0,0,21,0,6,8,5,12.8,0,0,6,10,6,11.857143,0,7.6,2.6,0.32,Graduate
1,1,4,9500,1,1,136,1,Basic,Basic,126.3,1,0,0,1,0,1,18,0,7,7,6,11.6,0,0,7,7,6,11.6,0,7.6,2.6,0.32,Graduate
1,17,1,9085,1,1,132,1,Basic,Basic,119.1,0,0,0,1,0,0,20,0,6,8,6,13.285714,0,0,6,16,6,11.8,0,12.4,0.5,1.79,Graduate
1,17,1,9003,1,1,120,1,Basic,Basic,131.4,1,0,0,1,1,1,23,17,18,19,18,11.894737,0,12,13,13,13,12.923077,0,15.5,2.8,-4.06,Graduate
1,39,1,8014,0,19,149,1,Unknown,Unknown,126.3,0,0,0,1,0,0,55,0,6,6,6,13.833333,0,1,6,6,6,12.833333,0,7.6,2.6,0.32,Graduate
1,17,3,9773,1,1,134,1,Higher,Secondary,129.5,1,0,0,1,1,0,18,0,6,7,6,13.166667,0,0,6,7,6,12.666667,0,16.2,0.3,-0.92,Graduate
1,7,1,9085,1,40,140,1,Secondary,Basic,140,1,0,0,1,0,0,23,0,6,7,6,15.571429,0,0,6,8,6,16.375,0,12.4,0.5,1.79,Graduate
1,17,3,9070,1,1,142,1,Secondary,Basic,146.9,1,0,0,1,0,1,18,0,6,6,6,13,0,0,6,6,6,12.166667,0,16.2,0.3,-0.92,Graduate
1,51,1,33,1,1,121,1,Basic,Basic,118.6,0,0,0,1,0,0,26,14,21,23,20,13.181818,0,10,14,18,14,11.642857,0,8.9,1.4,3.51,Graduate
1,1,2,9556,1,1,125,1,Basic,Secondary,116.3,1,0,0,1,0,0,18,0,7,8,7,13.428571,0,0,8,8,8,15.3125,0,16.2,0.3,-0.92,Graduate
2,39,1,9238,1,1,120,1,Basic,Basic,116,0,0,0,1,0,0,44,0,6,8,6,13,0,0,6,6,6,13.833333,0,12.7,3.7,-1.7,Graduate
1,1,4,9500,1,1,136,1,Secondary,Secondary,123.8,1,0,0,1,0,1,19,0,8,8,7,13.314286,0,0,8,8,7,13.314286,0,12.7,3.7,-1.7,Graduate
1,1,1,9254,1,1,115,1,Higher,Higher,112.6,0,0,0,1,1,1,20,0,6,9,6,12.571429,0,0,6,6,6,12.166667,0,8.9,1.4,3.51,Graduate
1,1,4,9500,1,1,137,1,Basic,Basic,127.5,1,0,0,1,0,0,18,0,8,8,8,13.045,0,0,8,8,8,13.045,0,9.4,-0.8,-3.12,Graduate
1,17,2,9773,1,1,133.1,1,Higher,Secondary,115,1,0,0,1,0,0,19,0,6,6,6,12.833333,0,0,6,6,6,12.666667,0,16.2,0.3,-0.92,Graduate
1,1,4,9238,1,1,134,1,Basic,Basic,128.4,1,0,0,1,0,1,18,0,6,6,6,12.5,0,0,6,6,6,11.666667,0,10.8,1.4,1.74,Graduate
1,39,1,9500,1,1,150,1,Basic,Higher,140,0,0,0,1,1,0,24,0,7,11,7,11.294444,0,0,8,22,2,12.6,0,15.5,2.8,-4.06,Graduate
1,44,1,9003,1,39,150,1,Basic,Basic,150,0,0,0,1,0,1,21,0,6,9,6,12.666667,0,0,6,8,5,12.8,0,13.9,-0.3,0.79,Graduate
1,39,1,9556,1,1,120,1,Basic,Basic,120,0,0,1,1,0,1,24,0,7,13,7,11,0,0,8,13,7,11.7,0,12.7,3.7,-1.7,Graduate
1,39,1,9500,1,19,133.1,1,Basic,Basic,116,0,0,0,1,0,1,26,0,7,8,6,10.983333,0,0,7,8,6,10.983333,0,7.6,2.6,0.32,Graduate
2,39,1,9500,1,38,133.1,1,Basic,Basic,146.6,0,0,0,1,1,0,37,0,7,8,7,12.828571,0,0,8,8,8,12.6875,0,13.9,-0.3,0.79,Graduate
1,17,4,9070,1,1,144,1,Basic,Secondary,137.4,1,0,0,1,1,0,19,0,6,6,6,13.833333,0,0,6,8,6,13.125,0,10.8,1.4,1.74,Graduate
1,1,3,9238,1,1,135,1,Secondary,Secondary,121,1,0,0,1,0,1,19,0,6,7,6,11.333333,0,0,6,6,6,11.5,0,12.4,0.5,1.79,Graduate
1,1,1,9070,1,1,117,1,Secondary,Secondary,118.4,0,0,0,1,1,0,19,0,6,6,6,11.833333,0,0,6,8,4,10.75,2,16.2,0.3,-0.92,Graduate
1,1,2,9670,1,1,131,1,Secondary,Basic,135.9,1,0,0,1,0,1,18,0,6,6,6,13.166667,0,0,6,8,6,12.428571,0,8.9,1.4,3.51,Graduate
1,18,1,9147,1,1,128,1,Basic,Basic,121.7,1,0,0,1,0,0,19,0,5,8,5,11,0,0,5,6,5,15.4,0,12.4,0.5,1.79,Graduate
1,51,1,8014,0,42,140,1,Basic,Basic,138,1,0,1,1,0,1,21,13,13,13,11,12.727273,0,9,11,11,10,12.6,0,8.9,1.4,3.51,Graduate
1,53,1,9003,1,42,130,1,Secondary,Secondary,125.8,0,0,1,1,0,0,21,7,13,21,11,11.909091,0,5,11,14,11,10.727273,0,8.9,1.4,3.51,Graduate
1,1,1,9070,1,1,131,1,Basic,Basic,131.7,1,0,0,1,0,0,20,0,6,6,6,12.166667,0,0,6,7,5,13.8,0,12.7,3.7,-1.7,Graduate
1,1,1,9070,1,1,126,1,Basic,Basic,119.4,0,0,0,1,0,1,21,0,6,7,5,13.8,0,0,6,6,6,12.833333,0,16.2,0.3,-0.92,Graduate
1,10,1,9773,1,1,152,22,Basic,Basic,152,1,0,0,1,0,0,22,0,6,8,6,11.666667,0,0,6,6,6,13,0,12.7,3.7,-1.7,Graduate
1,17,1,9500,1,1,134,1,Basic,Secondary,133.5,1,0,0,1,1,1,20,0,7,8,7,11.9725,0,0,8,8,8,12.65125,0,15.5,2.8,-4.06,Graduate
1,1,2,9500,1,1,124,1,Basic,Basic,116,1,0,0,1,0,1,21,0,8,8,7,13.957143,0,0,8,8,7,13.957143,0,12.7,3.7,-1.7,Graduate
1,1,2,9670,1,1,130,1,Basic,Basic,128.6,1,0,1,1,0,0,19,0,5,8,4,12.25,0,0,5,7,4,12.75,2,7.6,2.6,0.32,Graduate
2,1,1,9085,1,1,139,1,Basic,Basic,127.1,0,0,0,1,1,1,23,0,5,6,5,11.8,0,0,5,7,4,13.25,1,10.8,1.4,1.74,Graduate
1,1,1,9130,1,1,127,1,Secondary,Secondary,120.4,1,0,0,1,0,0,18,0,6,9,6,15.125,0,0,6,9,6,14,0,13.9,-0.3,0.79,Graduate
1,17,1,9853,1,1,160,1,Secondary,Basic,144.3,1,0,0,1,0,0,18,0,6,10,4,13,0,0,6,9,5,13.666667,0,9.4,-0.8,-3.12,Graduate
1,1,1,9500,1,1,151,1,Basic,Basic,138,1,0,0,1,0,0,18,0,7,7,6,15.2,0,0,7,7,6,15.2,0,7.6,2.6,0.32,Graduate
1,1,2,9500,1,1,139,1,Basic,Basic,125,1,0,0,1,0,1,19,0,7,7,6,12.9,0,0,7,7,6,12.9,0,7.6,2.6,0.32,Graduate
1,1,4,171,1,1,131,1,Basic,Basic,119.8,1,1,0,1,0,0,22,0,0,0,0,0,0,0,0,0,0,0,0,16.2,0.3,-0.92,Graduate
1,1,1,9773,1,1,140,1,Basic,Basic,135.1,1,0,0,1,0,0,18,0,6,7,6,13.5,0,0,6,8,6,12.5,0,9.4,-0.8,-3.12,Graduate
1,1,1,9773,1,1,123,1,Secondary,Basic,116.7,0,0,0,1,0,1,18,0,6,6,6,12.166667,0,0,6,8,6,12.666667,0,12.4,0.5,1.79,Graduate
1,39,1,9085,1,1,150,1,Basic,Basic,132,1,0,0,1,0,0,24,0,5,6,5,12,0,0,5,5,5,13,0,10.8,1.4,1.74,Graduate
1,1,1,9085,1,1,154,1,Basic,Basic,141.4,0,0,0,1,0,1,19,0,6,8,6,15,0,0,6,9,6,14.857143,0,11.1,0.6,2.02,Graduate
1,1,1,9238,1,1,133,1,Higher,Secondary,131.6,0,0,0,1,0,0,18,0,6,7,6,13.833333,0,0,6,7,6,13.714286,0,11.1,0.6,2.02,Graduate
1,1,5,9254,1,1,101,1,Higher,Basic,98.9,1,0,0,1,1,0,20,0,6,10,4,13,0,0,6,6,6,13,0,12.4,0.5,1.79,Graduate
1,44,1,9003,1,39,150,1,Basic,Basic,150,0,0,1,1,0,1,19,0,6,9,6,14.333333,0,0,6,7,6,13.833333,0,13.9,-0.3,0.79,Graduate
1,16,4,9773,1,1,109,1,Basic,Basic,137,1,0,0,1,0,1,18,0,6,7,6,12.666667,0,0,6,8,5,12.8,0,10.8,1.4,1.74,Graduate
1,17,2,171,1,1,142,1,Higher,Secondary,139.4,1,0,0,1,0,1,18,0,0,0,0,0,0,0,0,0,0,0,0,15.5,2.8,-4.06,Graduate
1,1,3,9085,1,1,158,1,Secondary,Basic,153.6,1,0,0,1,0,1,18,0,6,7,6,15.666667,0,0,6,8,6,15.285714,0,8.9,1.4,3.51,Graduate
1,1,3,9500,1,1,134,1,Secondary,Basic,120.5,1,0,0,1,1,1,18,0,7,12,7,11.716667,0,0,8,13,4,10.868,0,15.5,2.8,-4.06,Graduate
1,1,1,8014,0,1,125,1,Basic,Basic,114.9,0,0,0,1,0,0,29,8,11,14,11,12.75,0,3,7,7,7,13.428571,0,9.4,-0.8,-3.12,Graduate
2,39,1,9773,1,19,133.1,1,Basic,Basic,162,0,0,1,1,1,1,49,0,6,8,6,12.285714,0,0,6,7,6,14.166667,0,10.8,1.4,1.74,Graduate
1,1,1,9500,1,1,129,1,Basic,Basic,119.6,1,0,0,1,0,1,20,0,7,8,7,14.00375,0,0,8,11,7,13.812857,0,15.5,2.8,-4.06,Graduate
1,1,1,9853,1,1,137,1,Basic,Basic,132.8,1,0,0,1,0,0,18,0,6,7,6,13.333333,0,0,6,8,5,11.8,0,7.6,2.6,0.32,Graduate
1,17,5,9500,1,1,141,1,Secondary,Secondary,133,1,0,0,1,0,0,18,0,7,8,7,12.5375,0,0,8,9,7,12.614286,0,13.9,-0.3,0.79,Graduate
1,17,1,9500,1,1,152,1,Basic,Basic,132.5,0,0,0,1,1,0,21,0,8,8,7,14.54,0,0,8,8,7,14.54,0,10.8,1.4,1.74,Graduate
1,1,3,9500,1,1,102,1,Secondary,Basic,100.6,1,0,0,1,0,1,20,0,7,9,6,12.766667,0,0,8,10,7,12.128571,0,12.4,0.5,1.79,Graduate
1,17,4,9147,1,1,121,1,Basic,Basic,113,1,0,0,1,0,1,18,0,5,12,4,10.714286,0,0,5,9,4,11,0,13.9,-0.3,0.79,Graduate
1,1,5,9773,1,1,118,1,Basic,Basic,113.8,1,0,0,1,0,0,19,0,6,7,6,12.333333,0,0,6,7,6,12.5,0,8.9,1.4,3.51,Graduate
1,1,1,9070,1,1,182,1,Basic,Secondary,156.8,1,0,0,1,0,0,18,0,6,6,6,12.666667,0,0,6,8,6,13.25,0,10.8,1.4,1.74,Graduate
1,1,1,9500,1,1,160,1,Basic,Basic,154.4,0,0,0,1,0,1,18,0,7,9,7,15.116667,0,0,8,9,8,16.168889,0,15.5,2.8,-4.06,Graduate
1,1,2,9773,1,1,135,1,Basic,Basic,126.3,1,1,0,1,0,1,20,0,6,6,6,14.666667,0,0,6,7,6,14.571429,0,8.9,1.4,3.51,Graduate
1,17,5,9500,1,1,141,1,Basic,Basic,131.9,1,0,0,1,0,1,18,0,7,8,7,13.56875,0,0,8,8,8,14.02625,0,15.5,2.8,-4.06,Graduate
2,7,1,8014,0,3,124.4,1,Basic,Unknown,130,0,0,0,1,0,0,30,8,10,11,9,12.666667,0,3,7,7,7,12.428571,1,7.6,2.6,0.32,Graduate
1,7,1,9991,0,40,140,1,Basic,Basic,140,0,0,0,1,0,0,26,3,5,5,5,14,0,1,5,5,5,15.6,0,12.4,0.5,1.79,Graduate
2,39,1,8014,0,1,146,1,Basic,Basic,120.5,0,0,0,1,0,0,44,0,6,6,6,14.833333,0,0,6,6,6,14.166667,0,10.8,1.4,1.74,Graduate
2,39,1,9500,1,1,133.1,1,Basic,Basic,120,0,0,0,1,0,1,32,0,8,9,7,12.757143,0,0,8,9,7,12.757143,0,12.7,3.7,-1.7,Graduate
1,39,1,8014,0,1,120,1,Secondary,Secondary,150.5,0,0,0,1,0,0,27,0,6,6,6,12.5,0,1,6,6,6,12.333333,0,15.5,2.8,-4.06,Graduate
1,1,1,9238,1,1,145,1,Basic,Basic,148.9,1,0,0,1,0,1,18,0,6,6,6,13.666667,0,0,6,6,6,13,0,10.8,1.4,1.74,Graduate
1,1,1,9853,1,1,153,1,Basic,Basic,153.7,0,0,0,1,0,1,18,0,6,8,6,13.142857,0,0,6,6,6,12.833333,0,15.5,2.8,-4.06,Graduate
1,1,1,171,1,1,170,1,Basic,Basic,160.6,1,0,0,1,1,1,18,0,0,0,0,0,0,0,0,0,0,0,0,12.7,3.7,-1.7,Graduate
1,51,1,9070,1,1,130,1,Basic,Basic,124.5,0,0,0,1,0,1,20,5,11,11,11,13.818182,0,5,11,11,11,13.454545,0,11.1,0.6,2.02,Graduate
1,1,1,9085,1,1,140,1,Higher,Secondary,124.1,0,0,0,1,0,0,18,0,5,12,5,14.5,2,0,5,5,5,13.6,0,9.4,-0.8,-3.12,Graduate
1,17,2,9500,1,1,125,1,Basic,Basic,114.5,1,0,0,1,0,0,18,0,7,11,6,11.983333,0,0,8,12,8,12.28125,0,16.2,0.3,-0.92,Graduate
1,1,2,9070,1,1,145,1,Secondary,Basic,133.5,0,0,0,1,0,0,19,0,6,6,6,12.166667,0,0,6,6,6,11.333333,0,12.7,3.7,-1.7,Graduate
1,1,1,9085,1,1,133.1,1,Basic,Basic,106,1,0,0,1,0,1,21,0,6,13,6,16.153846,0,0,6,10,6,15.75,0,15.5,2.8,-4.06,Graduate
1,1,1,9085,1,1,123,1,Basic,Basic,122.3,0,0,0,1,0,0,18,0,5,6,5,14.2,0,0,5,7,5,11.8,0,7.6,2.6,0.32,Graduate
1,1,1,9238,1,1,135,1,Secondary,Secondary,133.3,0,0,0,1,0,1,20,0,6,6,6,12,0,0,6,7,6,12.857143,0,11.1,0.6,2.02,Graduate
1,1,2,9500,1,1,140,1,Basic,Basic,138.8,1,0,0,1,0,0,19,0,7,7,6,12.766667,0,0,7,7,6,12.766667,0,7.6,2.6,0.32,Graduate
1,1,6,9500,1,1,103,1,Secondary,Higher,100.6,1,1,0,1,0,0,22,0,7,9,5,13.928,0,0,8,9,7,14.342857,0,11.1,0.6,2.02,Graduate
1,39,1,9991,0,1,130,1,Secondary,Secondary,140,0,0,0,1,1,0,26,0,5,5,5,12.4,0,0,5,5,5,12.4,0,15.5,2.8,-4.06,Graduate
1,43,1,9556,1,1,130,1,Secondary,Basic,128,1,0,0,1,1,0,20,0,7,8,7,13.585714,0,0,8,8,8,14.6875,0,15.5,2.8,-4.06,Graduate
1,16,2,9500,1,1,127,1,Higher,Basic,119,1,0,0,1,0,1,19,0,8,12,7,12.6,0,0,8,12,7,12.6,0,10.8,1.4,1.74,Graduate
1,1,6,9147,1,1,115,1,Secondary,Basic,117.1,1,0,1,1,0,0,22,0,5,5,5,13.8,0,0,5,5,5,13,0,7.6,2.6,0.32,Graduate
1,1,1,9773,1,1,133.1,1,Secondary,Higher,116,0,0,0,1,1,0,20,0,6,8,6,11.5,0,0,6,8,6,11,0,16.2,0.3,-0.92,Graduate
1,1,6,9147,1,1,139,1,Basic,Secondary,125,1,0,0,1,0,0,18,0,5,8,3,12.333333,0,0,5,7,4,12,0,7.6,2.6,0.32,Graduate
1,43,1,9670,1,1,130,1,Unknown,Unknown,114.8,0,0,0,1,1,0,25,0,5,5,4,13.75,0,0,5,5,4,14.75,0,7.6,2.6,0.32,Graduate
1,1,2,9085,1,1,117,1,Basic,Basic,113.5,1,0,0,1,0,1,21,0,5,7,4,12,0,0,5,5,5,12.2,0,10.8,1.4,1.74,Graduate
1,1,1,9147,1,1,126,1,Higher,Basic,115.2,0,0,0,1,1,0,19,0,5,6,5,12.6,0,0,5,13,5,11.8,5,16.2,0.3,-0.92,Graduate
1,44,1,9003,1,39,170,1,Basic,Basic,170,1,0,0,1,1,0,20,0,6,8,6,14.5,0,0,6,10,6,15.3,0,16.2,0.3,-0.92,Graduate
1,51,1,9147,1,1,140,1,Basic,Basic,120.4,0,0,1,0,0,0,32,14,15,17,14,10.214286,0,13,13,13,13,11.384615,0,16.2,0.3,-0.92,Graduate
1,16,2,9238,1,1,130,1,Basic,Basic,126.9,1,0,0,1,0,0,18,0,6,8,6,13.571429,0,0,6,11,5,12.166667,0,9.4,-0.8,-3.12,Graduate
1,1,1,9085,1,1,134,1,Secondary,Secondary,128.4,1,0,0,1,0,1,18,0,5,12,5,12.857143,2,0,5,8,4,13.25,0,9.4,-0.8,-3.12,Graduate
1,1,6,9500,1,1,122,1,Basic,Basic,116.6,1,0,1,1,1,1,20,0,7,7,7,13.314286,0,0,8,8,8,12.575,0,12.4,0.5,1.79,Graduate
1,1,1,9773,1,1,117,1,Secondary,Basic,118.4,0,0,0,1,1,1,19,0,6,8,6,11.833333,0,0,6,11,3,13,0,15.5,2.8,-4.06,Graduate
1,43,1,9500,1,1,134,1,Basic,Basic,120.7,0,0,0,1,0,1,19,0,7,9,6,13,0,0,8,11,8,13.927273,0,16.2,0.3,-0.92,Graduate
1,1,1,171,1,1,143,1,Secondary,Secondary,155.3,1,1,0,1,0,0,18,0,0,0,0,0,0,0,0,0,0,0,0,11.1,0.6,2.02,Graduate
1,17,3,9238,1,1,141,1,Higher,Higher,124.9,1,0,0,1,0,0,19,0,6,10,6,12,0,0,6,12,4,11,0,12.7,3.7,-1.7,Graduate
1,1,1,9238,1,1,122,1,Secondary,Basic,127.3,1,0,1,1,0,0,20,0,6,6,6,12.166667,0,0,6,7,6,11.666667,0,9.4,-0.8,-3.12,Graduate
1,1,1,9070,1,1,130,41,Basic,Basic,125.5,1,0,0,1,0,1,19,0,6,6,6,14.166667,0,0,6,6,6,13.5,0,11.1,0.6,2.02,Graduate
1,39,1,9500,1,1,127,1,Basic,Basic,160,0,0,0,1,1,0,28,0,7,7,7,14.528571,0,0,8,11,8,15.018182,0,16.2,0.3,-0.92,Graduate
1,1,1,9238,1,1,141,1,Basic,Secondary,128.8,1,0,0,1,1,0,18,0,6,10,5,11.6,0,0,6,6,6,11.166667,0,10.8,1.4,1.74,Graduate
1,10,1,9254,1,1,115,24,Higher,Secondary,116.1,1,0,0,1,0,0,19,0,6,6,6,13.5,0,0,6,6,6,14.333333,0,12.4,0.5,1.79,Graduate
1,42,1,9500,1,1,100,1,Secondary,Basic,136,1,0,0,1,0,0,21,4,7,9,7,14.355556,0,5,8,8,8,13.49375,0,15.5,2.8,-4.06,Graduate
2,1,1,9556,1,1,144,1,Basic,Basic,139.8,0,0,1,1,1,0,24,0,7,7,7,12.271429,0,0,8,10,7,13.657143,0,10.8,1.4,1.74,Graduate
1,17,5,9070,1,1,133,1,Higher,Secondary,132,1,1,0,1,0,1,17,0,6,6,6,13,0,0,6,6,6,12.5,0,15.5,2.8,-4.06,Graduate
1,18,2,9670,1,1,121,1,Basic,Basic,111.9,1,0,0,1,1,0,19,0,6,6,6,14.166667,0,0,6,6,6,14,0,13.9,-0.3,0.79,Graduate
1,17,1,9500,1,1,137,1,Basic,Basic,131,1,0,0,1,0,1,18,0,8,8,8,13.73125,0,0,8,8,8,13.73125,0,9.4,-0.8,-3.12,Graduate
1,1,3,9853,1,1,122,1,Secondary,Higher,113.6,0,0,0,1,0,0,19,0,7,7,7,13.857143,0,0,7,7,7,14.285714,0,11.1,0.6,2.02,Graduate
1,1,1,9500,1,1,140,1,Basic,Basic,130,1,0,0,1,1,1,18,0,7,7,6,13.183333,0,0,7,7,6,13.183333,0,7.6,2.6,0.32,Graduate
1,18,1,9500,1,1,140,1,Basic,Basic,126,1,0,0,1,0,0,18,0,8,8,7,13.314286,0,0,8,8,7,13.314286,0,12.7,3.7,-1.7,Graduate
2,39,1,9003,1,1,150,1,Basic,Basic,140,0,0,0,1,1,0,60,17,18,18,18,14.111111,0,11,13,13,13,14.230769,0,15.5,2.8,-4.06,Graduate
1,1,4,9500,1,1,140,1,Basic,Basic,129.5,1,0,0,1,0,0,18,0,8,8,7,12.324286,0,0,8,8,7,12.324286,0,10.8,1.4,1.74,Graduate
1,1,1,9773,1,1,125,1,Basic,Secondary,130.6,1,0,0,1,0,1,18,0,6,6,6,13.5,0,0,6,6,6,14,0,8.9,1.4,3.51,Graduate
2,57,1,9991,0,1,133.1,41,Basic,Basic,100,0,0,0,1,0,0,37,5,10,11,7,13.428571,0,5,10,11,10,11.6,0,8.9,1.4,3.51,Graduate
2,1,1,9500,1,1,156,1,Secondary,Secondary,135.5,0,0,0,1,0,0,18,0,8,8,7,13.9,0,0,8,8,7,13.9,0,12.7,3.7,-1.7,Graduate
1,1,1,9670,1,1,131,1,Basic,Basic,127.9,0,0,0,1,0,1,19,0,5,5,5,12.8,0,0,5,5,5,14.2,0,9.4,-0.8,-3.12,Graduate
1,44,1,9003,1,39,140,1,Secondary,Secondary,140,1,0,0,1,0,0,20,0,6,10,5,11.666667,0,0,6,7,5,12.6,0,12.4,0.5,1.79,Graduate
1,17,1,9853,1,1,126,1,Secondary,Basic,132.7,0,0,0,1,0,1,18,0,6,7,6,12.666667,0,0,6,7,5,12.2,0,10.8,1.4,1.74,Graduate
1,1,2,9773,1,1,130,1,Basic,Basic,126.5,1,0,0,1,0,0,18,0,6,8,4,12.5,0,0,6,6,5,12.6,0,12.7,3.7,-1.7,Graduate
1,1,2,9500,1,1,131,1,Basic,Secondary,128.3,1,0,0,1,0,1,18,0,8,8,7,12.642857,0,0,8,8,7,12.642857,0,12.7,3.7,-1.7,Graduate
1,1,1,9238,1,1,152,1,Secondary,Basic,144.7,0,0,0,1,0,0,20,0,6,8,6,14.5,0,0,6,7,6,15.428571,0,16.2,0.3,-0.92,Graduate
1,39,1,9670,1,12,170,1,Secondary,Basic,110,0,0,0,1,1,1,25,0,6,8,6,14.142857,0,0,6,6,6,13.5,0,15.5,2.8,-4.06,Graduate
1,1,1,9670,1,1,154,1,Secondary,Secondary,154.7,0,0,0,1,0,1,18,0,5,6,5,11.8,0,0,5,5,5,12.6,0,9.4,-0.8,-3.12,Graduate
1,43,1,9070,1,1,141,1,Secondary,Basic,127,0,0,0,1,0,0,20,0,6,6,5,12.4,0,0,6,9,5,12.4,0,12.7,3.7,-1.7,Graduate
1,1,1,9070,1,1,131,1,Higher,Higher,135.9,0,0,0,1,0,1,21,1,6,8,6,12.571429,1,0,6,8,6,11.625,0,13.9,-0.3,0.79,Graduate
1,17,1,9130,1,1,130,1,Basic,Basic,122.5,0,0,0,1,1,0,19,0,5,11,4,12,1,0,5,9,5,12.6,0,9.4,-0.8,-3.12,Graduate
1,1,1,9147,1,1,156,1,Higher,Basic,151.1,0,0,1,1,1,0,19,0,5,7,5,13.6,0,0,5,11,5,12.833333,5,16.2,0.3,-0.92,Graduate
1,53,1,9556,1,42,140,1,Secondary,Basic,140,0,0,0,1,0,1,22,1,7,10,6,13.314286,0,2,8,10,7,12.875,0,8.9,1.4,3.51,Graduate
2,39,1,9991,0,3,140,1,Basic,Basic,152.4,0,0,0,1,0,0,26,0,5,5,5,12,0,0,5,6,5,14.833333,0,10.8,1.4,1.74,Graduate
1,17,2,9238,1,1,133,1,Secondary,Basic,127.4,1,0,0,1,0,1,18,0,6,8,6,12.25,0,0,6,7,6,11.857143,0,12.7,3.7,-1.7,Graduate
1,42,1,9500,1,1,157,1,Higher,Higher,100,0,0,0,1,0,0,18,0,7,8,7,13.55,0,0,8,8,8,14.1875,0,13.9,-0.3,0.79,Graduate
1,44,1,9070,1,39,120,1,Higher,Basic,120,0,0,0,1,1,0,20,2,7,7,6,12.5,0,5,9,10,7,13.142857,1,16.2,0.3,-0.92,Graduate
1,1,1,9500,1,1,136,1,Secondary,Basic,131.5,0,0,0,1,0,1,20,0,7,8,6,13.863333,0,0,8,9,7,14.178571,0,11.1,0.6,2.02,Graduate
1,1,3,9119,1,1,113,1,Higher,Basic,107.4,1,0,0,1,1,0,18,0,5,8,5,14,0,0,5,6,5,13.2,0,8.9,1.4,3.51,Graduate
2,39,1,8014,0,19,133.1,1,Basic,Basic,107,0,0,0,1,1,0,41,1,7,7,7,12.857143,0,0,6,6,6,13.166667,0,12.7,3.7,-1.7,Graduate
1,17,2,9773,1,1,126,1,Basic,Basic,118.7,1,0,0,1,0,1,18,0,6,6,6,14.166667,0,0,6,6,6,13.666667,0,12.4,0.5,1.79,Graduate
1,1,1,9130,1,1,160,1,Higher,Higher,149.2,0,0,0,1,1,0,18,0,5,7,4,14,0,0,5,5,5,14.2,0,7.6,2.6,0.32,Graduate
1,1,1,9500,1,1,131,1,Secondary,Basic,127,0,0,0,1,1,1,19,0,8,8,7,12.514286,0,0,8,8,7,12.514286,0,12.7,3.7,-1.7,Graduate
1,1,1,9500,1,1,118,1,Basic,Basic,115.2,1,0,0,1,0,0,19,0,7,9,6,12.971667,0,0,8,9,7,12.321429,0,11.1,0.6,2.02,Graduate
1,1,1,9238,1,1,133.1,1,Secondary,Secondary,102,1,0,0,1,0,1,20,0,6,7,6,13.666667,0,0,6,7,6,14.571429,0,11.1,0.6,2.02,Graduate
1,1,1,9070,1,1,138,1,Basic,Basic,133.1,0,0,0,1,1,0,18,0,6,6,6,14,0,0,6,7,6,13.857143,0,8.9,1.4,3.51,Graduate
1,43,4,9500,1,6,118.9,1,Basic,Basic,118.9,1,0,0,1,0,1,19,0,7,7,6,13.55,0,0,7,7,6,13.55,0,7.6,2.6,0.32,Graduate
1,44,1,9003,1,39,140,1,Secondary,Basic,140,0,0,0,1,1,0,20,0,6,7,6,13.571429,0,0,6,6,6,12.666667,0,12.4,0.5,1.79,Graduate
1,16,6,9773,1,1,136,1,Basic,Secondary,129.7,1,0,0,1,0,0,21,0,6,6,6,13.166667,0,0,6,6,6,13,0,7.6,2.6,0.32,Graduate
1,1,1,9500,1,1,135,1,Higher,Secondary,126.6,0,0,0,1,0,1,19,0,7,7,7,12.901429,0,0,8,9,8,13.094444,0,11.1,0.6,2.02,Graduate
1,1,3,9500,1,1,119,1,Basic,Basic,119.4,1,0,0,1,0,0,20,0,7,7,7,13.775714,0,0,8,8,8,15.6,0,12.4,0.5,1.79,Graduate
1,17,1,171,1,1,135,1,Basic,Secondary,131.9,1,0,0,1,1,0,19,6,12,12,12,13.583333,0,4,11,12,11,13.583333,0,8.9,1.4,3.51,Graduate
1,1,1,9238,1,1,154,1,Basic,Basic,156.5,1,1,0,1,0,1,18,0,6,8,6,11.714286,0,0,6,6,6,14.666667,0,12.7,3.7,-1.7,Graduate
1,1,1,9670,1,1,126,1,Secondary,Secondary,126.7,1,0,0,1,0,1,20,0,6,6,6,14.166667,0,0,6,9,6,13,0,8.9,1.4,3.51,Graduate
1,17,2,9670,1,1,128,1,Basic,Basic,121.7,0,0,0,1,1,1,20,0,5,5,5,12.4,0,0,5,5,4,10.75,0,9.4,-0.8,-3.12,Graduate
1,17,1,9254,1,1,125,1,Secondary,Basic,116.6,0,0,0,1,1,1,19,0,6,8,5,12.666667,0,0,6,10,6,12.857143,0,16.2,0.3,-0.92,Graduate
1,2,1,9147,1,1,150,1,Basic,Basic,122,1,0,0,1,0,0,29,13,15,19,13,11.769231,0,12,14,17,14,11.928571,0,9.4,-0.8,-3.12,Graduate
1,17,2,9254,1,1,124,41,Basic,Basic,123.3,1,0,0,1,0,0,22,0,6,7,6,10.833333,0,0,6,6,6,10.666667,0,13.9,-0.3,0.79,Graduate
1,42,1,9085,1,39,150,1,Secondary,Secondary,150,1,0,0,1,0,0,26,11,18,45,18,11.833333,10,9,13,27,13,12.461538,5,15.5,2.8,-4.06,Graduate
1,17,3,9773,1,1,123,1,Secondary,Basic,117.4,1,0,0,1,0,1,18,0,6,6,6,12.5,0,0,6,6,6,13.833333,0,16.2,0.3,-0.92,Graduate
1,17,2,9500,1,1,127,1,Basic,Basic,121.3,1,0,0,1,0,1,20,0,8,8,7,12.464286,0,0,8,8,7,12.464286,0,10.8,1.4,1.74,Graduate
1,1,2,9773,1,1,140,1,Secondary,Secondary,131.6,0,0,0,1,1,1,18,0,6,6,6,12.666667,0,0,6,6,6,11.5,0,16.2,0.3,-0.92,Graduate
1,18,1,9238,1,1,122,1,Secondary,Higher,112.6,1,0,0,1,1,0,21,0,6,9,6,10.166667,0,0,6,10,6,10.5,0,12.7,3.7,-1.7,Graduate
1,17,4,9254,1,1,125,1,Basic,Basic,115.6,1,0,0,1,0,0,20,0,6,6,6,11,0,0,6,8,4,12.75,0,9.4,-0.8,-3.12,Graduate
1,17,1,9500,1,1,157,1,Basic,Higher,138.8,0,0,0,1,1,0,18,0,8,8,7,13.557143,0,0,8,8,7,13.557143,0,12.7,3.7,-1.7,Graduate
1,1,1,9500,1,1,148,1,Secondary,Secondary,137.5,0,0,0,1,1,0,18,0,7,7,7,14.842857,0,0,8,9,8,14.388889,0,16.2,0.3,-0.92,Graduate
1,17,2,9773,1,1,148,1,Higher,Basic,144.2,1,0,0,1,0,0,18,0,6,6,6,15.166667,0,0,6,7,6,14.285714,0,12.4,0.5,1.79,Graduate
1,1,3,171,1,1,122,1,Secondary,Secondary,120.3,0,0,0,1,0,1,21,0,0,0,0,0,0,0,0,0,0,0,0,11.1,0.6,2.02,Graduate
1,1,1,9238,1,1,133.1,1,Basic,Basic,118,0,0,1,1,0,1,20,0,6,7,5,11.4,0,0,6,9,6,11.5,0,8.9,1.4,3.51,Graduate
1,1,1,9070,1,1,133.1,1,Secondary,Secondary,155,0,0,0,1,0,1,21,0,6,7,5,13,0,0,6,6,6,12.666667,0,16.2,0.3,-0.92,Graduate
1,1,1,9085,1,1,120,1,Basic,Basic,111.6,1,0,0,1,0,0,19,0,6,12,5,14,0,0,6,14,5,11,0,16.2,0.3,-0.92,Graduate
1,17,1,171,1,1,114,1,Basic,Basic,129.1,0,0,0,1,1,1,23,0,0,0,0,0,0,0,0,0,0,0,0,9.4,-0.8,-3.12,Graduate
1,1,5,9773,1,1,138,1,Basic,Basic,139.4,1,0,0,1,0,0,18,0,6,7,5,12.8,0,0,6,10,4,12.2,0,10.8,1.4,1.74,Graduate
1,43,2,9556,1,1,120,1,Secondary,Basic,110.2,0,0,0,1,0,0,27,0,7,9,7,12.228571,0,1,8,10,8,13.2125,0,10.8,1.4,1.74,Graduate
4,39,1,8014,0,19,140,1,Basic,Basic,131,0,0,0,1,0,1,29,0,6,11,4,11.75,0,0,6,9,5,10.4,0,10.8,1.4,1.74,Graduate
1,42,1,9254,1,1,154,1,Basic,Basic,154,1,0,0,1,0,0,28,8,14,22,12,12.333333,0,3,12,20,8,12,0,9.4,-0.8,-3.12,Graduate
1,18,1,9238,1,1,122,1,Basic,Basic,114.7,0,0,1,1,0,1,18,0,6,9,6,10.833333,0,0,6,8,6,12,0,11.1,0.6,2.02,Graduate
1,43,2,9238,1,1,133.1,1,Basic,Basic,120.6,1,0,0,1,0,0,24,6,10,16,10,12.5,0,2,7,9,4,12.6,0,16.2,0.3,-0.92,Graduate
1,43,1,8014,0,3,133.1,1,Secondary,Secondary,130,0,0,0,1,0,0,26,8,11,16,10,11.8,0,3,7,7,7,13.285714,0,7.6,2.6,0.32,Graduate
2,39,2,8014,0,19,100,1,Basic,Basic,100,0,0,1,1,0,0,37,0,6,9,6,11.833333,0,0,6,7,6,11,0,7.6,2.6,0.32,Graduate
1,1,3,9500,1,1,133.1,1,Basic,Basic,115.5,1,0,0,1,1,1,20,0,8,8,7,13.024286,0,0,8,8,7,13.024286,0,10.8,1.4,1.74,Graduate
1,17,2,9238,1,1,133,1,Basic,Basic,119.7,0,1,0,1,0,1,18,0,6,9,6,11.333333,0,0,6,9,6,11.571429,0,15.5,2.8,-4.06,Graduate
1,1,1,9238,1,1,160,1,Basic,Basic,152,0,0,0,1,1,1,19,0,6,7,6,13.857143,0,0,6,6,6,14,0,13.9,-0.3,0.79,Graduate
1,1,2,9773,1,1,148,1,Secondary,Basic,141.7,0,0,0,1,0,0,18,0,6,6,6,13.833333,0,0,6,6,6,12.666667,0,10.8,1.4,1.74,Graduate
1,1,3,9500,1,1,141,1,Basic,Basic,131.7,1,0,0,1,0,1,19,0,7,10,7,13.605,0,0,8,11,8,12.33125,0,15.5,2.8,-4.06,Graduate
1,18,2,8014,0,1,117,1,Higher,Secondary,111.8,1,0,0,1,0,1,19,0,6,8,6,10.833333,0,0,6,9,6,11.5,0,10.8,1.4,1.74,Graduate
1,1,1,9070,1,1,150,1,Basic,Basic,131.1,0,0,0,1,0,1,19,0,6,7,5,13.4,0,0,6,6,6,12.833333,0,15.5,2.8,-4.06,Graduate
1,1,4,9238,1,1,123,1,Basic,Secondary,129,1,0,0,1,0,0,19,0,6,8,6,11.666667,0,0,6,6,6,12.333333,0,10.8,1.4,1.74,Graduate
1,1,1,9500,1,1,143,1,Basic,Basic,138.8,1,0,0,1,0,0,31,0,7,9,7,15.46875,0,0,8,8,8,16.3875,0,11.1,0.6,2.02,Graduate
1,1,4,9500,1,1,148,1,Basic,Basic,137,1,0,0,1,0,0,18,0,8,8,8,14.25,0,0,8,8,8,14.25,0,9.4,-0.8,-3.12,Graduate
1,17,1,9238,1,1,128,1,Basic,Basic,116.5,0,0,0,1,0,1,18,0,6,8,5,10.8,0,0,6,9,6,10.5,0,12.4,0.5,1.79,Graduate
1,1,1,9238,1,1,150,1,Basic,Basic,142.7,1,0,0,1,0,1,18,0,6,6,6,14.666667,0,0,6,6,6,15.166667,0,9.4,-0.8,-3.12,Graduate
1,18,6,9500,1,1,140,1,Higher,Basic,129,1,0,0,1,0,0,21,0,8,8,7,12.414286,0,0,8,8,7,12.414286,0,12.7,3.7,-1.7,Graduate
1,39,1,9085,1,40,130,1,Higher,Higher,160,1,0,0,1,0,0,27,0,6,7,6,16.142857,0,0,6,7,6,14.666667,0,13.9,-0.3,0.79,Graduate
1,1,1,9670,1,1,135,1,Basic,Basic,121.4,0,0,0,1,1,0,21,0,5,7,4,11.5,0,0,5,6,4,11.75,0,9.4,-0.8,-3.12,Graduate
1,1,1,9670,1,1,115,1,Secondary,Secondary,108,1,0,0,1,0,1,20,0,6,9,5,13,0,0,6,6,5,13.8,0,12.4,0.5,1.79,Graduate
1,1,2,9500,1,1,120,1,Higher,Basic,115.1,1,0,0,1,0,1,19,0,7,8,6,13.075,0,0,8,10,7,12.05,0,12.4,0.5,1.79,Graduate
2,7,1,8014,0,3,110,1,Basic,Basic,110,0,0,0,1,0,0,39,9,13,19,12,13.416667,0,4,10,10,10,14.5,0,16.2,0.3,-0.92,Graduate
1,1,1,171,1,1,145,1,Higher,Secondary,160.1,0,0,0,1,0,1,19,6,12,12,12,14.5,0,4,11,15,11,13.583333,0,8.9,1.4,3.51,Graduate
1,17,2,9500,1,1,138,1,Secondary,Basic,132.8,1,0,0,1,0,0,18,0,7,9,6,12.385714,0,0,8,9,8,13.755556,0,13.9,-0.3,0.79,Graduate
1,17,1,8014,0,1,120,1,Basic,Basic,113,0,0,0,1,0,1,24,0,6,11,4,12,0,0,6,7,6,13,0,10.8,1.4,1.74,Graduate
1,1,1,171,1,1,110,1,Higher,Higher,117,1,0,0,1,1,0,21,0,0,0,0,0,0,0,0,0,0,0,0,9.4,-0.8,-3.12,Graduate
1,1,4,9500,1,1,129,1,Basic,Basic,117.1,1,0,0,1,0,0,30,0,7,7,7,14.692857,0,0,8,8,8,14.9625,0,12.4,0.5,1.79,Graduate
1,39,2,9670,1,1,140,1,Unknown,Unknown,100,0,0,0,1,0,0,28,0,5,6,4,12.5,0,0,5,7,4,11.75,0,7.6,2.6,0.32,Graduate
1,1,3,9500,1,1,150,1,Basic,Basic,132.8,1,0,0,1,0,1,18,0,8,8,8,13.01125,0,0,8,8,8,13.01125,0,9.4,-0.8,-3.12,Graduate
1,17,2,9670,1,1,110,1,Higher,Higher,115.6,1,0,0,1,1,0,21,0,6,10,6,11.875,0,0,6,8,5,12,0,11.1,0.6,2.02,Graduate
1,17,1,9500,1,1,140,1,Basic,Basic,136.5,1,0,0,1,0,1,18,0,7,7,7,14.838571,0,0,8,9,8,14.8,0,12.4,0.5,1.79,Graduate
1,1,2,9500,1,1,130,1,Secondary,Secondary,125.1,1,0,0,1,0,0,18,0,7,10,7,13.78,0,0,8,10,8,13.661,0,15.5,2.8,-4.06,Graduate
1,1,3,9773,1,1,143,11,Basic,Basic,133.9,1,0,0,1,1,1,18,0,6,7,6,13.5,0,0,6,7,6,13,0,16.2,0.3,-0.92,Graduate
1,1,1,9853,1,1,130,1,Basic,Basic,131.8,0,0,0,1,0,0,18,0,7,9,7,12.571429,0,0,7,8,7,14.428571,0,11.1,0.6,2.02,Graduate
1,1,4,9773,1,1,155,1,Higher,Basic,149.8,1,0,0,1,0,1,18,0,6,6,6,13.833333,0,0,6,6,6,14.166667,0,16.2,0.3,-0.92,Graduate
1,1,6,9500,1,1,143,1,Basic,Basic,127,1,0,0,1,0,1,18,0,8,8,7,13.585714,0,0,8,8,7,13.585714,0,12.7,3.7,-1.7,Graduate
1,1,2,9500,1,1,126,1,Secondary,Basic,124.3,1,0,0,1,0,1,20,0,8,8,8,12.98125,0,0,8,8,8,12.98125,0,9.4,-0.8,-3.12,Graduate
1,1,6,9500,1,1,145,1,Basic,Basic,127.5,1,0,0,1,0,1,19,0,7,7,6,13.416667,0,0,7,7,6,13.416667,0,7.6,2.6,0.32,Graduate
1,44,1,9003,1,39,130,1,Secondary,Basic,130,1,0,0,1,1,0,19,0,6,9,6,12.166667,0,0,6,14,4,13,0,12.4,0.5,1.79,Graduate
2,39,1,9991,0,1,110,1,Basic,Basic,160,0,0,0,1,0,0,44,0,5,5,5,11.8,0,0,5,5,5,12.4,0,15.5,2.8,-4.06,Graduate
1,1,1,9500,1,1,121,1,Secondary,Secondary,114.9,0,0,0,1,1,1,21,0,7,9,6,13.342857,0,0,8,10,7,11.65,0,12.4,0.5,1.79,Graduate
1,17,1,9085,1,1,133.1,1,Basic,Basic,99,1,0,0,1,0,1,23,0,6,6,6,14.666667,0,0,6,8,6,12.428571,0,8.9,1.4,3.51,Graduate
1,39,1,8014,0,40,140,1,Basic,Basic,148,0,0,0,1,0,0,37,7,11,11,11,13.727273,0,4,8,8,8,14.75,0,12.4,0.5,1.79,Graduate
1,1,6,9500,1,1,149,1,Secondary,Secondary,133,1,0,0,1,0,1,18,0,8,8,7,14,0,0,8,8,7,14,0,12.7,3.7,-1.7,Graduate
1,17,2,9070,1,1,121,1,Secondary,Basic,111.9,1,0,0,1,1,0,19,0,6,9,5,12,0,0,6,10,4,11.2,0,8.9,1.4,3.51,Graduate
1,17,1,9238,1,1,116,1,Secondary,Secondary,119.2,1,0,0,1,0,1,18,0,6,6,6,14,0,0,6,6,6,13.5,0,8.9,1.4,3.51,Graduate
1,1,1,9500,1,1,148,1,Basic,Basic,134.8,1,0,0,1,1,0,18,0,7,7,6,13.35,0,0,7,7,6,13.35,0,7.6,2.6,0.32,Graduate
1,17,5,9119,1,1,118,1,Secondary,Basic,120.5,1,0,0,1,1,0,20,0,5,10,3,13.333333,0,0,5,11,5,13.571429,0,12.4,0.5,1.79,Graduate
4,43,1,9500,1,19,100,1,Unknown,Unknown,110,0,0,0,1,1,0,30,11,14,26,12,12.526087,1,11,14,26,12,12.526087,1,7.6,2.6,0.32,Graduate
1,1,6,9500,1,1,140,1,Basic,Basic,128.5,1,0,0,1,0,1,18,0,8,8,8,13.40375,0,0,8,8,8,13.40375,0,9.4,-0.8,-3.12,Graduate
1,44,1,9670,1,39,110,1,Basic,Secondary,110,0,0,0,1,0,1,20,2,6,9,6,12.125,0,2,6,7,6,13.571429,0,11.1,0.6,2.02,Graduate
1,1,1,9238,1,1,133.1,1,Basic,Basic,108,0,0,0,1,0,1,20,0,6,8,6,12.125,0,0,6,7,6,14.428571,0,16.2,0.3,-0.92,Graduate
1,1,1,9003,1,1,148,1,Basic,Basic,131.6,1,0,0,1,1,0,19,8,12,17,11,12,2,4,12,21,12,12.307692,0,15.5,2.8,-4.06,Graduate
2,44,1,9085,1,39,160,1,Basic,Basic,160,0,0,0,1,0,0,27,0,5,12,3,14,2,0,5,8,5,12,1,9.4,-0.8,-3.12,Graduate
1,1,2,9254,1,1,127,1,Higher,Basic,130.9,1,0,0,1,0,0,18,0,6,8,6,11.333333,0,0,6,8,5,12.6,0,9.4,-0.8,-3.12,Graduate
1,42,1,9085,1,39,140,1,Basic,Higher,159.9,1,0,0,1,0,0,21,2,6,14,5,13.666667,0,2,6,10,5,13,0,16.2,0.3,-0.92,Graduate
1,1,2,9085,1,1,148,1,Basic,Basic,134.7,1,0,0,1,0,0,18,0,6,6,6,17,0,0,6,6,6,15.5,0,8.9,1.4,3.51,Graduate
1,17,1,9238,1,1,132,1,Secondary,Basic,127.1,1,0,0,1,0,0,19,0,6,7,6,12.857143,0,0,6,7,6,13.666667,0,13.9,-0.3,0.79,Graduate
1,1,1,171,1,1,138,1,Secondary,Higher,149.9,1,0,0,1,0,0,20,0,0,0,0,0,0,0,0,0,0,0,0,11.1,0.6,2.02,Graduate
1,1,1,9991,0,1,172,1,Basic,Basic,149.3,0,0,0,1,1,1,24,0,5,5,5,16,0,0,5,5,5,16,0,8.9,1.4,3.51,Graduate
1,1,1,9500,1,1,136,1,Secondary,Secondary,123.8,0,0,0,1,0,0,19,0,7,10,6,11.614286,0,0,8,8,8,14.0375,0,13.9,-0.3,0.79,Graduate
1,44,1,9003,1,39,140,1,Higher,Secondary,140,0,0,0,1,1,0,21,0,6,12,5,12.142857,0,0,6,11,5,11.666667,0,13.9,-0.3,0.79,Graduate
1,39,1,9003,1,1,140,1,Basic,Basic,150,0,0,1,1,0,0,34,0,6,10,5,13.833333,0,0,6,13,5,12.5,0,16.2,0.3,-0.92,Graduate
1,1,3,9773,1,1,135,1,Basic,Basic,133.3,1,0,0,1,0,1,18,0,6,6,6,14.833333,0,0,6,6,6,14.166667,0,8.9,1.4,3.51,Graduate
1,10,1,9085,1,1,140,1,Basic,Basic,140,1,0,0,1,0,0,21,0,5,6,5,14.2,0,0,5,5,5,14.8,0,10.8,1.4,1.74,Graduate
1,1,1,171,1,3,116,1,Higher,Higher,128.2,0,0,0,1,0,0,22,12,17,22,17,10.368421,0,14,17,18,17,11.5,0,11.1,0.6,2.02,Graduate
1,1,1,9500,1,1,125,1,Basic,Basic,126,1,0,1,1,0,0,20,0,7,7,6,15.4,0,0,7,7,6,15.4,0,7.6,2.6,0.32,Graduate
1,1,2,9070,1,1,164,1,Basic,Basic,165.8,1,0,0,1,0,0,18,0,6,7,6,14.166667,0,0,6,7,6,14.857143,0,9.4,-0.8,-3.12,Graduate
1,1,1,9500,1,1,143,1,Higher,Basic,126.8,0,0,0,1,1,0,19,0,8,8,7,14.535714,0,0,8,8,7,14.535714,0,10.8,1.4,1.74,Graduate
1,1,2,9238,1,1,100,1,Basic,Secondary,99.3,1,0,0,1,0,0,21,0,6,8,5,12.4,0,0,6,6,6,12,0,12.4,0.5,1.79,Graduate
1,1,3,9500,1,1,129,1,Basic,Basic,127.3,1,0,0,1,0,1,20,0,7,7,6,12.633333,0,0,7,7,6,12.633333,0,7.6,2.6,0.32,Graduate
1,1,1,9500,1,1,154,1,Secondary,Secondary,144.9,0,0,0,1,1,1,18,0,7,7,7,15.957143,0,0,8,9,8,15.188889,0,16.2,0.3,-0.92,Graduate
1,1,1,9500,1,1,162,1,Higher,Higher,154.1,0,0,0,1,0,0,18,0,7,7,7,14.45,0,0,8,9,8,14.144444,0,11.1,0.6,2.02,Graduate
1,18,2,9238,1,1,126,1,Basic,Basic,129.9,1,0,0,1,1,1,20,1,7,9,6,12,0,2,6,6,6,11.166667,0,10.8,1.4,1.74,Graduate
1,44,1,8014,0,39,140,1,Secondary,Higher,139.2,0,0,1,1,0,0,20,3,6,6,6,13.833333,0,2,6,7,6,14.571429,0,12.4,0.5,1.79,Graduate
1,1,1,9130,1,1,133,1,Secondary,Basic,123.2,1,0,0,1,0,1,19,0,6,8,6,13.333333,0,0,6,7,6,13.666667,0,8.9,1.4,3.51,Graduate
1,17,2,9853,1,1,123,1,Secondary,Secondary,116.7,1,0,0,1,0,0,19,0,6,8,5,13,0,0,6,8,4,10.75,0,9.4,-0.8,-3.12,Graduate
1,1,3,171,1,1,140,1,Basic,Basic,124.3,1,0,0,1,1,0,18,0,0,0,0,0,0,0,0,0,0,0,0,7.6,2.6,0.32,Graduate
1,1,1,9773,1,1,142,1,Basic,Basic,141.3,0,0,0,1,0,1,19,0,6,7,6,14.714286,0,0,6,6,6,15.166667,0,13.9,-0.3,0.79,Graduate
1,1,1,9070,1,1,143,1,Basic,Basic,134.3,1,1,0,1,0,0,19,0,6,6,6,14.666667,0,0,6,7,6,15.142857,0,8.9,1.4,3.51,Graduate
1,1,6,9500,1,1,143,1,Basic,Basic,129.5,1,0,0,1,0,1,18,0,8,8,7,13.798571,0,0,8,8,7,13.798571,0,10.8,1.4,1.74,Graduate
1,18,1,9670,1,1,140,1,Secondary,Basic,130.2,1,0,0,1,1,0,22,0,6,11,4,13,0,0,6,11,4,12.6,0,12.7,3.7,-1.7,Graduate
1,39,1,9003,1,1,140,1,Higher,Secondary,130,0,0,0,1,1,0,27,0,6,6,6,14.166667,0,0,6,7,6,13.833333,0,11.1,0.6,2.02,Graduate
1,17,4,9670,1,1,110,1,Secondary,Basic,111.1,1,0,0,0,0,0,18,0,6,6,6,12.333333,0,0,6,8,5,13.6,0,8.9,1.4,3.51,Graduate
1,1,1,9773,1,1,137,1,Secondary,Secondary,129.3,1,0,0,1,1,0,18,0,6,6,6,13.666667,0,0,6,6,6,14.5,0,12.7,3.7,-1.7,Graduate
1,43,1,9853,1,1,140,1,Basic,Basic,125.2,0,0,1,1,0,0,41,20,21,23,21,12.333333,0,19,19,19,19,12.105263,0,12.4,0.5,1.79,Graduate
1,1,3,9773,1,1,135,1,Higher,Secondary,129.8,1,0,0,1,1,0,20,0,6,6,5,12.8,0,0,6,11,3,12.75,0,15.5,2.8,-4.06,Graduate
1,43,1,9500,1,1,140,1,Secondary,Basic,100,0,0,0,1,0,1,18,0,7,8,7,13.6375,0,0,8,8,8,14.3875,0,13.9,-0.3,0.79,Graduate
1,44,1,9085,1,1,140,1,Higher,Higher,140,0,0,0,1,0,0,22,2,6,9,6,13.333333,0,1,6,9,4,11.5,0,13.9,-0.3,0.79,Graduate
1,1,2,9670,1,1,144,1,Basic,Basic,126.9,0,0,0,1,0,1,21,0,5,5,5,13.2,0,0,5,5,4,13,0,9.4,-0.8,-3.12,Graduate
1,1,3,9500,1,1,126,1,Basic,Basic,118.8,1,0,0,1,0,1,19,0,8,8,7,12.785714,0,0,8,8,7,12.785714,0,12.7,3.7,-1.7,Graduate
1,17,3,9500,1,1,132,1,Basic,Basic,128.3,1,0,0,1,0,1,19,0,7,8,7,14.70625,0,0,8,8,8,14.4775,0,15.5,2.8,-4.06,Graduate
1,1,1,9254,1,1,145,1,Higher,Basic,134.9,1,0,0,1,0,0,18,0,6,6,6,15.5,0,0,6,6,6,16,0,12.4,0.5,1.79,Graduate
2,43,1,9991,0,1,140,1,Basic,Basic,122.7,0,0,0,1,1,0,38,0,5,5,5,14.6,0,0,5,6,5,14.333333,0,13.9,-0.3,0.79,Graduate
1,1,4,9773,1,1,122,1,Basic,Basic,121,1,0,0,1,0,0,20,0,6,7,6,13.571429,0,0,6,6,6,13.333333,0,13.9,-0.3,0.79,Graduate
1,1,1,9085,1,1,130,1,Basic,Basic,126.5,1,0,0,1,0,1,18,0,6,13,6,16.461538,0,0,6,8,6,13.875,0,15.5,2.8,-4.06,Graduate
1,16,2,171,1,1,145,1,Higher,Higher,143.6,1,0,0,1,1,0,18,0,0,0,0,0,0,0,0,0,0,0,0,12.4,0.5,1.79,Graduate
2,39,1,9991,0,1,160,1,Secondary,Secondary,128.4,0,0,0,1,0,0,34,0,5,12,5,10.4,0,0,5,11,5,12,0,12.4,0.5,1.79,Graduate
1,1,1,9773,1,1,125,1,Basic,Basic,133.4,1,0,0,1,1,1,20,0,6,8,6,12,0,0,6,8,6,11.5,0,13.9,-0.3,0.79,Graduate
1,1,1,9500,1,1,143,1,Higher,Secondary,136.7,0,0,0,1,0,0,19,2,7,8,7,12.67,0,1,8,8,8,13.55,0,11.1,0.6,2.02,Graduate
2,39,1,8014,0,1,133.1,1,Basic,Basic,113.5,0,0,0,1,0,1,50,3,9,11,8,13.25,0,2,7,8,7,11.714286,0,12.7,3.7,-1.7,Graduate
1,1,1,9254,1,1,131,2,Basic,Secondary,126.1,1,0,0,1,1,0,18,0,6,6,6,13.666667,0,0,6,6,6,13.5,0,7.6,2.6,0.32,Graduate
1,18,1,171,1,1,110,1,Basic,Higher,117.7,1,0,1,1,1,1,20,0,0,0,0,0,0,0,0,0,0,0,0,12.4,0.5,1.79,Graduate
1,17,6,9500,1,1,136,1,Basic,Basic,132.5,1,0,0,1,0,0,19,0,8,9,7,12.3,0,0,8,9,7,12.3,0,12.7,3.7,-1.7,Graduate
2,39,1,9003,1,1,133.1,1,Basic,Basic,150,0,0,0,1,1,0,31,0,6,10,6,15,0,0,6,11,5,12.5,0,13.9,-0.3,0.79,Graduate
1,43,2,9238,1,1,118,1,Basic,Basic,110,0,0,0,1,0,1,19,0,6,8,6,11.428571,0,0,6,11,5,11.2,0,10.8,1.4,1.74,Graduate
1,1,2,9500,1,1,134,1,Secondary,Secondary,128.4,1,0,0,1,0,0,18,0,7,7,7,13.471429,0,0,8,9,8,13.944444,0,16.2,0.3,-0.92,Graduate
1,1,1,9500,1,1,153,1,Basic,Basic,147.9,0,0,0,1,0,1,18,0,7,7,7,14.652857,0,0,8,9,8,14.755556,0,12.4,0.5,1.79,Graduate
1,17,4,9500,1,1,129,1,Basic,Basic,120,1,0,0,1,0,0,19,0,8,8,7,12.454286,0,0,8,8,7,12.454286,0,10.8,1.4,1.74,Graduate
1,1,1,9238,1,1,115,1,Basic,Basic,108.7,0,0,0,1,0,1,19,0,6,9,5,10.8,0,0,6,8,6,10.714286,0,15.5,2.8,-4.06,Graduate
1,1,1,9238,1,1,141,1,Basic,Basic,125.6,1,0,0,1,0,1,18,0,6,6,6,12.666667,0,0,6,6,6,12,0,9.4,-0.8,-3.12,Graduate
1,1,1,9500,1,1,131,1,Secondary,Secondary,122,0,0,0,1,0,0,19,0,8,8,7,15,0,0,8,8,7,15,0,12.7,3.7,-1.7,Graduate
1,1,2,9773,1,1,116,1,Basic,Basic,110.1,1,0,0,1,0,0,18,0,6,6,6,13.333333,0,0,6,6,6,12,0,11.1,0.6,2.02,Graduate
1,1,5,9238,1,1,126,1,Basic,Secondary,125.7,1,0,0,1,0,1,19,0,6,8,6,11,0,0,6,13,3,11,0,9.4,-0.8,-3.12,Graduate
1,17,2,9238,1,1,115,1,Basic,Basic,116.4,1,0,0,1,0,0,21,0,6,9,6,11.375,0,0,6,9,6,13.285714,0,16.2,0.3,-0.92,Graduate
1,17,2,9773,1,1,121,1,Secondary,Secondary,123.1,1,0,0,1,1,0,20,0,6,12,4,14.75,0,0,6,7,4,12.25,0,9.4,-0.8,-3.12,Graduate
1,1,2,9254,1,1,140,1,Secondary,Basic,123.6,1,0,0,1,0,0,18,0,6,10,6,12.857143,0,0,6,6,3,12.666667,0,12.7,3.7,-1.7,Graduate
1,17,1,9254,1,1,125,1,Basic,Basic,118,1,0,0,1,0,1,19,0,6,10,4,12.25,0,0,6,9,3,12.333333,0,9.4,-0.8,-3.12,Graduate
1,7,1,9991,0,40,120,1,Basic,Basic,120,0,0,0,1,0,0,32,0,5,7,5,11.6,0,0,5,8,5,12.333333,0,12.4,0.5,1.79,Graduate
1,1,1,9130,1,1,134,41,Secondary,Basic,125.6,1,0,0,1,0,0,20,0,5,6,5,16.166667,0,0,5,6,5,15.833333,0,12.7,3.7,-1.7,Graduate
1,1,1,9147,1,1,135,1,Secondary,Basic,122.4,0,0,1,1,0,0,19,0,5,10,5,10.875,0,0,5,8,4,12.4,0,13.9,-0.3,0.79,Graduate
1,43,1,9500,1,1,130,1,Secondary,Secondary,136,1,0,0,1,1,0,22,0,8,9,8,12.55375,1,0,8,9,8,12.55375,1,9.4,-0.8,-3.12,Graduate
1,17,4,9119,1,1,133,1,Higher,Secondary,123.2,1,0,0,1,1,0,18,0,5,5,5,13.6,0,0,5,6,5,14.6,0,8.9,1.4,3.51,Graduate
2,39,1,9991,0,1,170,1,Basic,Basic,134.7,0,0,0,1,0,0,33,0,5,5,5,12.8,0,0,5,6,5,15.333333,0,10.8,1.4,1.74,Graduate
2,1,1,9254,1,1,140,1,Basic,Basic,133,0,0,0,1,1,0,33,3,9,11,9,12.8,0,2,7,9,7,11.428571,0,12.7,3.7,-1.7,Graduate
2,43,1,9991,0,1,140,1,Basic,Basic,130,1,0,0,1,1,0,30,6,10,14,9,12.333333,0,7,10,12,8,12,0,9.4,-0.8,-3.12,Graduate
1,17,2,8014,0,1,122,1,Basic,Basic,123.8,0,0,0,1,0,0,20,0,6,8,5,12,0,0,6,8,6,11,0,10.8,1.4,1.74,Graduate
2,39,1,9130,1,19,133.1,1,Basic,Basic,120,0,0,0,1,1,0,53,0,5,9,4,12.25,2,0,5,8,4,11.75,0,9.4,-0.8,-3.12,Graduate
1,17,1,9085,1,1,128,1,Basic,Basic,117.2,0,0,0,1,1,0,20,0,5,7,5,14.6,1,0,5,5,5,14.2,0,12.7,3.7,-1.7,Graduate
1,39,1,9147,1,1,160,1,Basic,Basic,121.4,0,1,0,1,0,1,26,0,5,8,4,13,0,0,5,10,4,12.25,2,16.2,0.3,-0.92,Graduate
1,1,4,9147,1,1,126,1,Secondary,Basic,120.1,1,0,0,1,0,0,19,0,5,7,5,12.4,0,0,5,5,5,14.6,0,8.9,1.4,3.51,Graduate
1,10,1,9670,1,1,148.9,22,Basic,Basic,148.9,0,0,0,1,0,0,20,0,5,6,5,11.6,0,0,5,6,4,11.5,0,9.4,-0.8,-3.12,Graduate
1,17,4,9500,1,1,150,1,Basic,Basic,130.8,0,0,0,1,1,1,22,0,7,7,7,14.842857,0,0,8,9,8,15.055556,0,16.2,0.3,-0.92,Graduate
1,1,1,9238,1,1,138,1,Basic,Basic,133.5,0,0,0,1,0,1,19,0,6,6,6,15,0,0,6,6,6,13.333333,0,8.9,1.4,3.51,Graduate
1,1,2,9147,1,1,108,1,Secondary,Basic,105.9,1,0,0,1,1,0,21,0,5,9,4,10.75,0,0,5,6,5,11.4,0,11.1,0.6,2.02,Graduate
1,17,4,9070,1,1,160,1,Secondary,Basic,155.5,1,0,0,1,0,0,18,0,6,6,6,14,0,0,6,6,6,15,0,11.1,0.6,2.02,Graduate
1,1,2,9500,1,1,147,1,Higher,Secondary,136.7,0,0,0,1,0,0,18,0,7,7,7,13.995714,0,0,8,9,8,14.955556,0,11.1,0.6,2.02,Graduate
1,39,1,9773,1,19,133.1,1,Basic,Basic,104,0,0,1,0,0,1,24,0,6,6,6,13.5,0,0,6,6,6,13,0,11.1,0.6,2.02,Graduate
1,1,3,9254,1,1,118,1,Secondary,Basic,111.7,1,0,0,1,0,0,19,0,6,6,6,12.5,0,0,6,6,6,12.166667,0,12.4,0.5,1.79,Graduate
1,17,5,9773,1,1,143,1,Secondary,Secondary,136.7,1,0,0,1,0,0,18,0,6,6,6,12.5,0,0,6,6,6,13.833333,0,8.9,1.4,3.51,Graduate
1,1,1,9238,1,1,160,1,Basic,Basic,155.5,1,0,0,1,0,1,18,0,6,7,6,12.833333,0,0,6,6,6,12.166667,0,10.8,1.4,1.74,Graduate
1,1,4,9085,1,1,138,1,Higher,Secondary,123.3,1,0,0,1,0,1,19,0,6,7,6,14.857143,0,0,6,10,6,13.111111,0,12.4,0.5,1.79,Graduate
1,1,4,9500,1,1,132,1,Basic,Basic,118,1,0,0,1,0,0,18,0,8,8,7,12.328571,0,0,8,8,7,12.328571,0,12.7,3.7,-1.7,Graduate
1,1,1,9500,1,1,140,1,Basic,Basic,124.3,1,0,0,1,0,1,18,0,7,7,7,14.542857,0,0,8,11,8,14.881818,0,16.2,0.3,-0.92,Graduate
2,39,1,8014,0,1,133.1,1,Basic,Basic,162.5,0,0,0,1,1,0,54,4,9,9,9,14.333333,0,2,7,7,7,13.857143,0,8.9,1.4,3.51,Graduate
1,1,4,9500,1,1,139,1,Basic,Basic,124,1,0,0,1,1,1,18,0,8,8,7,13.331429,0,0,8,8,7,13.331429,0,10.8,1.4,1.74,Graduate
1,17,5,9254,1,1,121,1,Secondary,Basic,116.5,1,0,0,0,1,0,18,0,6,12,0,0,0,0,6,0,0,0,0,9.4,-0.8,-3.12,Dropout_Enrolled
2,42,1,9991,0,1,130,1,Higher,Higher,130,0,0,0,1,1,0,27,2,2,2,2,12.5,0,0,5,6,2,12.5,0,12.7,3.7,-1.7,Dropout_Enrolled
1,43,3,171,1,1,140,1,Basic,Basic,143.4,1,0,0,1,0,0,21,0,0,0,0,0,0,0,0,0,0,0,0,9.4,-0.8,-3.12,Dropout_Enrolled
1,1,1,9500,1,1,131,1,Basic,Basic,122,1,0,0,1,0,0,20,0,8,8,7,14.014286,0,0,8,8,7,14.014286,0,12.7,3.7,-1.7,Dropout_Enrolled
2,39,1,8014,0,1,140,1,Basic,Higher,172,0,0,0,1,1,0,44,5,11,21,9,12.333333,0,8,11,16,9,11,0,12.4,0.5,1.79,Dropout_Enrolled
1,17,1,171,1,1,140,41,Secondary,Secondary,146.3,1,0,0,1,0,1,18,0,0,0,0,0,0,0,0,0,0,0,0,12.7,3.7,-1.7,Dropout_Enrolled
1,1,1,9130,1,1,140,1,Secondary,Basic,131.2,0,0,0,1,1,1,26,0,5,9,0,0,0,0,5,6,0,0,0,7.6,2.6,0.32,Dropout_Enrolled
1,39,1,9003,1,19,133.1,1,Basic,Basic,134.3,0,0,0,1,1,0,25,0,6,15,1,11,0,0,6,13,4,11.75,0,12.4,0.5,1.79,Dropout_Enrolled
1,1,6,9500,1,1,120,41,Secondary,Secondary,114.8,1,0,0,1,0,0,21,0,7,11,4,13.25,0,0,7,9,5,13.82,0,11.1,0.6,2.02,Dropout_Enrolled
1,17,1,9670,1,1,118,1,Basic,Basic,115.2,1,0,0,1,0,1,21,0,5,7,3,12.333333,0,0,5,5,2,12.5,0,7.6,2.6,0.32,Dropout_Enrolled
1,17,4,9670,1,1,126,1,Secondary,Secondary,115.2,0,0,0,0,0,0,19,0,6,7,3,12.666667,0,0,6,10,5,13.125,0,10.8,1.4,1.74,Dropout_Enrolled
1,17,3,9119,1,1,135,1,Secondary,Basic,121.7,1,0,0,1,1,0,18,0,5,7,5,11.8,0,0,5,9,3,12,0,8.9,1.4,3.51,Dropout_Enrolled
1,17,1,9130,1,1,125,1,Basic,Basic,131,1,0,0,1,1,0,19,0,5,11,2,10.5,2,0,5,9,0,0,3,10.8,1.4,1.74,Dropout_Enrolled
1,1,3,9500,1,1,140,1,Basic,Basic,141.5,1,0,1,0,0,0,19,0,8,8,7,13.327143,0,0,8,8,7,13.327143,0,10.8,1.4,1.74,Dropout_Enrolled
1,17,1,9147,1,1,116,1,Basic,Higher,112.2,1,0,0,1,0,0,20,0,5,8,3,11.333333,0,0,5,12,2,10.666667,0,10.8,1.4,1.74,Dropout_Enrolled
1,17,4,9070,1,1,128,1,Secondary,Secondary,136.1,1,0,1,0,1,0,19,0,6,6,6,12.666667,0,0,6,8,5,11.8,0,11.1,0.6,2.02,Dropout_Enrolled
1,39,1,9003,1,1,160,1,Secondary,Basic,168.6,0,0,0,1,1,0,26,0,6,9,0,0,0,0,6,6,0,0,0,13.9,-0.3,0.79,Dropout_Enrolled
1,1,1,9853,1,1,133.1,1,Unknown,Unknown,142.8,0,0,0,1,1,0,20,0,6,12,0,0,0,0,6,12,0,0,0,7.6,2.6,0.32,Dropout_Enrolled
1,1,1,9670,1,1,95,1,Basic,Basic,95,0,0,0,0,1,0,21,0,6,9,4,13.25,0,0,6,6,5,11,0,12.7,3.7,-1.7,Dropout_Enrolled
1,17,2,9853,1,1,126,1,Secondary,Basic,126,1,0,0,1,0,0,19,0,6,9,5,13,0,0,6,8,5,10.4,0,7.6,2.6,0.32,Dropout_Enrolled
1,1,1,9130,1,1,143,1,Higher,Higher,141.3,0,0,1,0,0,0,23,0,6,10,6,14,0,0,6,11,4,13,0,11.1,0.6,2.02,Dropout_Enrolled
1,1,1,9085,1,1,126,1,Higher,Secondary,123.9,1,0,0,1,0,0,19,0,6,13,4,11.8,0,0,6,18,4,12.2,0,12.4,0.5,1.79,Dropout_Enrolled
1,1,1,9853,1,1,121,1,Basic,Basic,116.8,1,0,0,1,0,0,18,0,6,11,3,11.666667,0,0,6,11,3,10.666667,0,9.4,-0.8,-3.12,Dropout_Enrolled
1,39,1,9991,0,1,100,1,Basic,Basic,140,0,0,0,1,1,0,39,0,5,7,4,12.25,0,0,5,7,4,12.75,0,15.5,2.8,-4.06,Dropout_Enrolled
2,43,2,9853,1,1,130,1,Basic,Secondary,124.2,0,0,0,1,0,0,31,3,7,8,6,13.666667,0,1,6,8,5,13.5,0,9.4,-0.8,-3.12,Dropout_Enrolled
1,1,3,9500,1,1,130,1,Higher,Secondary,133.8,0,0,0,1,0,0,19,0,7,0,0,0,0,0,8,0,0,0,0,7.6,2.6,0.32,Dropout_Enrolled
1,5,3,9085,1,1,143,1,Basic,Basic,159.1,0,0,1,1,0,1,18,0,5,5,5,14.4,0,0,5,5,5,14,0,7.6,2.6,0.32,Dropout_Enrolled
1,39,1,9085,1,43,160,1,Higher,Secondary,172,0,0,0,1,0,0,26,0,6,0,0,0,0,0,6,0,0,0,0,8.9,1.4,3.51,Dropout_Enrolled
1,1,1,9147,1,1,127,1,Basic,Basic,129.8,1,0,0,1,0,0,22,0,5,8,3,10.333333,0,0,5,11,2,10,0,7.6,2.6,0.32,Dropout_Enrolled
1,39,2,9670,1,1,150,1,Unknown,Unknown,107,1,0,0,1,1,0,26,0,5,5,0,0,0,0,5,5,0,0,0,7.6,2.6,0.32,Dropout_Enrolled
1,1,2,9773,1,1,130,109,Basic,Secondary,126.9,1,0,0,1,0,1,19,0,6,8,6,13.166667,0,0,6,6,6,13,0,11.1,0.6,2.02,Dropout_Enrolled
1,17,2,171,1,1,137,1,Secondary,Secondary,143.3,1,0,0,1,0,0,18,0,0,0,0,0,0,0,0,0,0,0,0,9.4,-0.8,-3.12,Dropout_Enrolled
1,17,6,9147,1,1,130,1,Basic,Basic,110.4,1,0,0,1,1,0,25,13,15,15,13,10.769231,0,11,14,15,12,11.833333,0,7.6,2.6,0.32,Dropout_Enrolled
2,39,1,8014,0,19,133.1,1,Unknown,Unknown,130,0,0,0,1,1,0,38,0,6,0,0,0,0,0,6,0,0,0,0,9.4,-0.8,-3.12,Dropout_Enrolled
1,43,1,9991,0,1,120,1,Basic,Basic,122.5,1,0,0,1,0,0,29,8,13,16,8,10.5,0,8,12,19,9,10.333333,0,9.4,-0.8,-3.12,Dropout_Enrolled
1,17,2,9500,1,1,127,1,Higher,Higher,118.8,1,0,0,1,1,0,19,0,7,9,6,12.933333,0,0,7,7,6,13.716667,0,16.2,0.3,-0.92,Dropout_Enrolled
1,1,2,9773,1,1,116,1,Secondary,Basic,127.6,1,0,0,1,0,1,19,0,6,7,6,13.857143,0,0,6,7,6,13.142857,0,13.9,-0.3,0.79,Dropout_Enrolled
1,51,1,9670,1,19,133.1,1,Higher,Secondary,120,0,0,1,1,1,0,32,1,6,15,2,12,0,0,6,7,0,0,0,11.1,0.6,2.02,Dropout_Enrolled
1,1,1,9238,1,1,125,1,Secondary,Secondary,128.5,0,0,0,1,1,0,20,0,6,13,1,14,0,0,6,7,0,0,0,16.2,0.3,-0.92,Dropout_Enrolled
1,1,1,9500,1,1,141,1,Higher,Secondary,124.3,0,0,0,1,0,0,19,0,8,8,7,14.514286,0,0,8,8,7,14.514286,0,12.7,3.7,-1.7,Dropout_Enrolled
1,44,1,171,1,39,160,1,Basic,Basic,160,1,0,1,1,1,1,21,0,0,0,0,0,0,0,0,0,0,0,0,15.5,2.8,-4.06,Dropout_Enrolled
2,39,1,9991,0,1,162,1,Basic,Basic,132,0,0,1,1,1,0,25,0,5,8,4,11,0,0,5,7,4,12,0,7.6,2.6,0.32,Dropout_Enrolled
1,17,1,9130,1,1,138,1,Higher,Basic,126.3,1,0,0,1,0,1,18,0,6,7,6,12.833333,1,0,6,8,6,13,0,8.9,1.4,3.51,Dropout_Enrolled
1,39,1,9670,1,12,133.1,1,Basic,Secondary,120,0,0,1,0,1,0,40,0,6,13,0,0,0,0,6,6,0,0,0,15.5,2.8,-4.06,Dropout_Enrolled
1,1,1,171,1,1,159,1,Higher,Secondary,162.2,1,0,1,0,0,0,18,0,0,0,0,0,0,0,0,0,0,0,0,12.4,0.5,1.79,Dropout_Enrolled
1,17,2,9853,1,1,123,1,Higher,Secondary,124.1,1,0,0,1,0,0,18,0,6,7,2,14.5,0,0,6,6,1,10,0,15.5,2.8,-4.06,Dropout_Enrolled
1,1,1,9130,1,1,117,1,Secondary,Secondary,109.3,1,0,0,1,0,0,20,0,5,10,4,12.5,0,0,5,12,2,13,0,12.7,3.7,-1.7,Dropout_Enrolled
1,44,1,9130,1,39,140,1,Higher,Higher,140,1,0,0,1,1,0,20,1,5,8,2,11.5,0,1,5,13,2,11.5,0,12.7,3.7,-1.7,Dropout_Enrolled
1,17,2,8014,0,1,133,1,Basic,Secondary,119.7,1,0,0,1,0,1,19,0,6,10,4,11.5,0,0,6,11,6,11.5,0,9.4,-0.8,-3.12,Dropout_Enrolled
4,39,1,9085,1,1,140,1,Basic,Basic,154.6,0,0,0,0,0,1,44,0,6,12,4,12.75,0,0,6,15,2,10,0,8.9,1.4,3.51,Dropout_Enrolled
1,39,1,9853,1,19,133.1,1,Basic,Higher,116,1,0,0,1,0,0,29,0,7,14,0,0,0,0,6,6,0,0,0,11.1,0.6,2.02,Dropout_Enrolled
2,39,1,9500,1,19,133.1,1,Basic,Basic,100.5,1,0,0,1,1,0,43,0,8,8,7,11.635714,0,0,8,8,7,11.635714,0,10.8,1.4,1.74,Dropout_Enrolled
1,1,1,9556,1,1,135,1,Secondary,Secondary,131.5,0,0,0,1,1,1,21,0,7,14,5,11.2,0,0,8,11,6,11.583333,0,16.2,0.3,-0.92,Dropout_Enrolled
1,39,1,9130,1,1,150,1,Secondary,Secondary,110,0,0,1,1,1,0,24,0,5,13,2,12.5,2,0,5,8,3,12.333333,0,9.4,-0.8,-3.12,Dropout_Enrolled
2,39,2,9147,1,1,140,1,Basic,Basic,108,0,0,0,1,0,0,50,0,5,12,3,13.333333,1,0,5,8,5,12.2,0,9.4,-0.8,-3.12,Dropout_Enrolled
1,43,1,9991,0,1,140,1,Basic,Basic,135.5,0,0,1,0,0,0,29,0,5,15,2,13.25,0,0,5,12,3,12.6,3,16.2,0.3,-0.92,Dropout_Enrolled
1,43,1,9991,0,1,120,1,Basic,Basic,128.2,0,0,0,0,1,0,32,5,9,9,5,11.4,0,4,4,4,4,11,0,10.8,1.4,1.74,Dropout_Enrolled
1,43,1,171,1,1,133,1,Basic,Basic,133,0,0,0,1,0,0,18,0,0,0,0,0,0,0,0,0,0,0,0,15.5,2.8,-4.06,Dropout_Enrolled
1,18,1,9991,0,1,112,1,Higher,Higher,106.4,0,0,0,1,1,0,22,0,5,0,0,0,0,0,5,0,0,0,0,8.9,1.4,3.51,Dropout_Enrolled
1,17,6,9670,1,1,117,1,Basic,Basic,114.6,0,0,0,0,1,0,19,0,6,9,4,11.25,0,0,6,11,3,10.166667,0,10.8,1.4,1.74,Dropout_Enrolled
2,7,1,9130,1,3,120,1,Higher,Higher,128.2,0,0,0,1,0,0,33,1,5,11,2,11.5,1,1,5,8,2,12,0,9.4,-0.8,-3.12,Dropout_Enrolled
1,1,2,9254,1,1,110,1,Higher,Basic,114.8,1,0,0,0,1,0,18,0,5,6,0,0,0,0,5,5,0,0,0,12.7,3.7,-1.7,Dropout_Enrolled
1,1,3,9070,1,1,128,1,Basic,Basic,129.8,1,0,0,1,0,0,20,0,6,6,6,11.833333,0,0,6,6,3,13.333333,0,9.4,-0.8,-3.12,Dropout_Enrolled
1,1,4,171,1,1,139,1,Basic,Basic,127.8,1,0,0,1,0,0,19,0,0,0,0,0,0,0,0,0,0,0,0,10.8,1.4,1.74,Dropout_Enrolled
1,44,1,9130,1,39,130,1,Higher,Secondary,130,1,0,1,1,1,0,20,2,6,9,4,11,0,1,6,13,3,10.666667,0,12.4,0.5,1.79,Dropout_Enrolled
1,39,1,8014,0,1,133.1,1,Basic,Basic,96,0,0,1,0,1,0,50,0,6,6,0,0,0,0,5,6,0,0,0,12.4,0.5,1.79,Dropout_Enrolled
1,39,1,8014,0,1,155,1,Basic,Basic,117.5,0,0,0,1,0,0,34,0,6,6,4,13.25,0,0,6,6,0,0,0,12.7,3.7,-1.7,Dropout_Enrolled
1,17,1,9500,1,1,128,1,Secondary,Secondary,124.7,0,0,0,1,1,1,19,0,7,11,6,12.528571,0,0,7,10,6,12.416667,0,15.5,2.8,-4.06,Dropout_Enrolled
1,18,2,9119,1,1,136,1,Secondary,Higher,122.7,1,0,0,1,1,0,18,0,5,7,5,12.6,0,0,5,9,3,13.25,0,13.9,-0.3,0.79,Dropout_Enrolled
2,39,1,9991,0,1,110,1,Basic,Basic,130,0,0,0,0,1,0,42,0,4,4,0,0,0,0,5,0,0,0,0,12.7,3.7,-1.7,Dropout_Enrolled
1,42,1,9119,1,1,120,1,Basic,Basic,113.8,0,0,0,0,1,0,27,0,5,0,0,0,0,0,5,0,0,0,0,15.5,2.8,-4.06,Dropout_Enrolled
1,1,1,9670,1,1,133.1,1,Secondary,Basic,139,0,0,0,1,1,0,21,0,6,6,5,12.8,0,0,6,9,5,12.25,0,10.8,1.4,1.74,Dropout_Enrolled
1,17,1,9853,1,1,125,1,Higher,Higher,116.6,1,0,0,0,0,1,18,0,7,7,7,12.285714,0,0,7,8,6,13.333333,0,8.9,1.4,3.51,Dropout_Enrolled
1,17,4,9500,1,1,138,1,Higher,Secondary,133,1,0,0,1,0,0,18,0,8,8,0,0,5,0,8,8,0,0,5,9.4,-0.8,-3.12,Dropout_Enrolled
1,17,1,9853,1,1,138,1,Basic,Basic,124.7,1,0,0,1,0,0,18,0,6,11,3,12.333333,0,0,6,10,5,10.833333,0,9.4,-0.8,-3.12,Dropout_Enrolled
1,17,4,9119,1,1,135,1,Basic,Basic,126.6,1,0,0,1,1,0,18,0,5,7,4,12,0,0,5,10,3,13,3,7.6,2.6,0.32,Dropout_Enrolled
1,17,1,9254,1,1,158,1,Basic,Basic,138.1,1,0,0,1,0,0,19,0,6,8,4,12.5,0,0,6,11,1,14,0,7.6,2.6,0.32,Dropout_Enrolled
2,39,1,9991,0,1,100,1,Basic,Basic,161.9,0,0,0,1,1,0,59,0,5,7,0,0,0,0,5,7,0,0,0,16.2,0.3,-0.92,Dropout_Enrolled
1,1,1,9085,1,1,125,1,Basic,Basic,126.8,0,0,0,1,0,0,18,0,6,13,6,12,0,0,6,16,4,12.75,0,11.1,0.6,2.02,Dropout_Enrolled
1,39,1,9991,0,1,120,1,Basic,Basic,115,1,0,0,1,1,0,27,0,5,9,1,10,0,0,5,5,0,0,0,12.7,3.7,-1.7,Dropout_Enrolled
1,17,1,9556,1,1,133,1,Secondary,Basic,119,0,0,0,1,0,0,19,0,7,10,6,11.15,0,0,7,7,7,12.814286,0,12.7,3.7,-1.7,Dropout_Enrolled
1,18,2,9147,1,1,115,1,Secondary,Basic,108.7,1,0,0,1,0,0,21,0,5,8,3,12,1,0,5,9,3,12.666667,0,9.4,-0.8,-3.12,Dropout_Enrolled
1,39,1,9130,1,3,150,1,Higher,Secondary,150,1,0,0,1,0,0,34,1,5,6,1,11,0,0,5,5,0,0,0,12.7,3.7,-1.7,Dropout_Enrolled
1,39,1,9991,0,1,130,1,Basic,Basic,130.1,0,0,0,1,0,0,25,0,5,8,3,11,0,0,5,8,3,11.25,0,10.8,1.4,1.74,Dropout_Enrolled
1,39,1,9130,1,39,150,1,Secondary,Higher,150,0,0,0,1,1,0,28,0,6,9,0,0,0,0,6,8,1,10,1,16.2,0.3,-0.92,Dropout_Enrolled
4,39,1,8014,0,19,133.1,1,Unknown,Unknown,100,0,0,0,1,0,0,48,0,6,11,1,10,0,0,6,11,1,11,0,9.4,-0.8,-3.12,Dropout_Enrolled
1,1,1,9670,1,1,127,1,Secondary,Basic,128.1,0,0,0,1,1,0,19,0,5,8,4,12.5,0,0,5,6,4,11,0,7.6,2.6,0.32,Dropout_Enrolled
1,39,1,9130,1,1,133.1,1,Higher,Unknown,120,0,0,1,0,1,0,29,0,5,11,0,0,4,0,5,6,0,0,1,9.4,-0.8,-3.12,Dropout_Enrolled
1,1,2,9254,1,1,125,1,Secondary,Basic,121.5,1,0,0,1,1,0,18,0,6,12,5,11,0,0,6,11,3,10.333333,0,9.4,-0.8,-3.12,Dropout_Enrolled
1,1,3,9147,1,1,124,1,Secondary,Secondary,116.7,1,0,0,1,1,0,19,0,5,6,0,0,0,0,5,6,0,0,0,7.6,2.6,0.32,Dropout_Enrolled
2,39,1,9070,1,19,133.1,1,Basic,Basic,126.3,0,0,0,0,1,0,38,0,6,6,0,0,0,0,6,8,0,0,0,10.8,1.4,1.74,Dropout_Enrolled
2,39,1,9147,1,1,130,1,Basic,Basic,117.9,0,0,0,1,0,0,35,0,1,1,0,0,1,0,5,0,0,0,0,10.8,1.4,1.74,Dropout_Enrolled
1,17,2,9238,1,1,136,1,Secondary,Higher,126.6,1,0,0,1,0,0,18,0,6,6,6,16.5,0,0,6,7,6,17.428571,0,11.1,0.6,2.02,Dropout_Enrolled
1,1,1,9085,1,1,105,1,Basic,Basic,102.6,0,1,0,1,0,0,21,0,6,13,4,12,0,0,6,17,2,11.5,0,11.1,0.6,2.02,Dropout_Enrolled
1,39,1,9130,1,1,114,1,Basic,Basic,120,0,0,0,1,0,0,24,0,6,9,6,12.571429,0,0,6,10,5,12.833333,0,11.1,0.6,2.02,Dropout_Enrolled
1,39,1,9085,1,2,140,1,Basic,Basic,150,0,0,0,1,1,0,47,0,6,0,0,0,0,0,6,0,0,0,0,16.2,0.3,-0.92,Dropout_Enrolled
1,17,2,9085,1,1,123,1,Secondary,Basic,113.6,1,0,0,1,0,0,19,0,5,13,3,12,2,0,5,8,4,11.75,0,9.4,-0.8,-3.12,Dropout_Enrolled
1,7,1,9003,1,3,130,1,Secondary,Basic,130,1,0,0,0,1,0,32,11,17,31,11,12.727273,4,10,12,24,10,12.7,1,15.5,2.8,-4.06,Dropout_Enrolled
1,1,1,9773,1,1,127,1,Secondary,Basic,121.8,1,0,0,1,0,1,20,0,6,11,4,14,0,0,6,12,3,11,0,9.4,-0.8,-3.12,Dropout_Enrolled
1,17,1,9670,1,1,132,1,Basic,Basic,122.9,0,0,0,0,1,0,20,0,6,6,6,11.5,0,0,6,9,2,13,0,10.8,1.4,1.74,Dropout_Enrolled
1,44,1,9991,0,39,130,1,Basic,Basic,130,1,0,0,1,1,0,32,2,6,9,4,12.5,0,3,7,7,4,11,0,9.4,-0.8,-3.12,Dropout_Enrolled
1,1,2,9147,1,1,140,1,Basic,Basic,127.8,1,0,0,1,1,0,23,0,5,7,3,10.666667,1,0,5,7,3,11.333333,0,9.4,-0.8,-3.12,Dropout_Enrolled
1,17,1,9085,1,1,121,1,Basic,Basic,131.5,0,0,0,1,0,0,21,0,5,10,0,0,1,0,5,9,2,13.5,0,7.6,2.6,0.32,Dropout_Enrolled
1,44,1,9003,1,39,130,1,Higher,Higher,130,0,0,0,1,1,0,20,1,7,13,3,10.666667,0,0,6,14,2,11.5,0,15.5,2.8,-4.06,Dropout_Enrolled
1,18,1,9085,1,1,153,1,Basic,Basic,138,1,0,0,1,0,1,21,0,6,7,6,13.5,0,0,6,6,3,15.333333,0,8.9,1.4,3.51,Dropout_Enrolled
1,44,1,9085,1,39,140,1,Secondary,Secondary,140,1,0,1,1,0,0,22,2,6,9,6,12,0,1,6,12,3,12,0,13.9,-0.3,0.79,Dropout_Enrolled
1,1,1,9238,1,1,135,1,Basic,Basic,121,0,0,1,1,0,0,18,0,6,10,5,10.6,0,0,6,14,2,10,0,7.6,2.6,0.32,Dropout_Enrolled
1,17,1,9119,1,1,130,1,Basic,Basic,121.3,1,0,0,1,1,0,18,0,5,9,1,12,0,0,5,10,2,12,3,7.6,2.6,0.32,Dropout_Enrolled
1,1,1,9147,1,1,150,1,Unknown,Basic,152.8,1,0,0,1,1,1,18,0,5,7,4,12.75,0,0,5,5,0,0,0,7.6,2.6,0.32,Dropout_Enrolled
2,1,1,9147,1,1,133.1,1,Unknown,Unknown,131.8,0,0,0,1,0,0,24,14,15,17,14,11.357143,0,13,14,15,13,12.846154,0,7.6,2.6,0.32,Dropout_Enrolled
2,39,1,9147,1,1,140,1,Basic,Basic,127.7,1,0,0,1,0,0,31,0,5,8,3,11,0,0,5,9,2,11.5,0,7.6,2.6,0.32,Dropout_Enrolled
1,17,1,9119,1,1,130,1,Secondary,Higher,123,0,0,0,1,1,0,18,0,5,10,1,10,0,0,5,7,0,0,0,9.4,-0.8,-3.12,Dropout_Enrolled
1,39,1,9500,1,1,120,1,Basic,Basic,100,0,0,0,1,1,0,34,0,7,15,6,11.333333,0,0,7,16,4,12.6,0,16.2,0.3,-0.92,Dropout_Enrolled
2,39,1,9500,1,1,133.1,1,Basic,Basic,115.2,0,0,0,1,0,0,48,0,7,11,4,11.75,0,0,7,14,3,11.725,0,11.1,0.6,2.02,Dropout_Enrolled
1,1,2,9254,1,1,130,1,Secondary,Basic,122.7,1,0,0,1,0,0,18,0,6,10,4,11.75,0,0,6,13,4,10,0,7.6,2.6,0.32,Dropout_Enrolled
1,17,1,9147,1,1,114,1,Basic,Basic,107.7,0,0,0,1,0,0,19,0,5,7,2,10,0,0,5,11,2,14,0,10.8,1.4,1.74,Dropout_Enrolled
1,7,2,9500,1,3,140,1,Basic,Basic,138,0,0,0,1,1,0,28,0,7,7,7,14.114286,0,0,8,9,8,15.911111,0,16.2,0.3,-0.92,Dropout_Enrolled
1,44,1,9003,1,39,150,1,Higher,Higher,150,0,0,0,1,1,0,21,0,6,15,5,11.857143,0,0,6,17,5,10.571429,0,16.2,0.3,-0.92,Dropout_Enrolled
1,1,1,171,1,1,140,1,Basic,Basic,126.8,1,0,0,0,0,1,18,0,0,0,0,0,0,0,0,0,0,0,0,12.7,3.7,-1.7,Dropout_Enrolled
1,1,3,9670,1,1,120,1,Basic,Basic,111.3,1,0,0,1,1,0,19,0,5,7,3,11.333333,0,0,5,7,4,11,0,9.4,-0.8,-3.12,Dropout_Enrolled
2,39,1,9119,1,1,110,1,Basic,Basic,106.8,0,0,0,1,1,0,34,0,5,8,1,10,0,0,5,9,0,0,0,8.9,1.4,3.51,Dropout_Enrolled
1,5,1,9853,1,1,119,1,Secondary,Basic,118.3,1,0,0,1,0,0,22,0,6,11,3,15,0,0,6,11,4,10.25,0,9.4,-0.8,-3.12,Dropout_Enrolled
1,17,3,9670,1,1,147,1,Basic,Basic,128.8,0,0,1,1,0,0,19,0,5,5,1,10,0,0,5,5,0,0,0,9.4,-0.8,-3.12,Dropout_Enrolled
1,1,2,9773,1,1,127,1,Secondary,Basic,120.4,1,0,0,1,0,0,18,0,5,7,2,10,0,0,1,1,0,0,0,12.7,3.7,-1.7,Dropout_Enrolled
1,1,1,171,1,1,141,1,Basic,Basic,135.8,1,0,0,1,1,0,19,0,0,0,0,0,0,0,0,0,0,0,0,15.5,2.8,-4.06,Dropout_Enrolled
1,39,1,9119,1,12,133.1,1,Unknown,Unknown,95.1,0,0,0,0,1,0,49,0,5,5,0,0,0,0,5,6,0,0,0,10.8,1.4,1.74,Dropout_Enrolled
1,17,2,9119,1,1,135,1,Secondary,Basic,121,0,0,0,1,1,0,19,0,5,0,0,0,0,0,5,0,0,0,0,12.4,0.5,1.79,Dropout_Enrolled
1,17,5,9119,1,1,138,1,Basic,Basic,123.3,1,0,1,1,1,0,18,0,5,9,4,12.5,0,0,5,11,5,11.285714,0,12.4,0.5,1.79,Dropout_Enrolled
2,43,1,9991,0,1,140,1,Basic,Basic,100,0,0,0,0,0,0,31,2,6,10,4,11.75,0,0,5,6,1,10,0,12.7,3.7,-1.7,Dropout_Enrolled
1,53,1,9085,1,42,140,1,Basic,Basic,138.2,0,0,1,0,0,0,21,7,10,15,8,13.75,0,4,9,17,5,13.2,0,8.9,1.4,3.51,Dropout_Enrolled
1,1,1,9773,1,1,145,1,Basic,Basic,131.7,1,0,0,1,0,0,18,0,6,7,6,12.666667,0,0,6,8,4,12.25,0,7.6,2.6,0.32,Dropout_Enrolled
1,1,1,9147,1,1,108,41,Higher,Higher,107,0,0,1,0,0,0,19,0,5,14,0,0,0,0,5,5,0,0,0,8.9,1.4,3.51,Dropout_Enrolled
1,39,1,9991,0,9,133.1,1,Basic,Unknown,118.1,1,0,0,1,0,0,39,0,5,9,0,0,0,0,5,5,2,12.5,0,7.6,2.6,0.32,Dropout_Enrolled
1,1,3,9773,1,1,131,1,Secondary,Secondary,127.2,1,0,0,1,0,1,18,0,6,6,6,13.166667,0,0,6,7,5,13.2,0,12.4,0.5,1.79,Dropout_Enrolled
1,39,1,9773,1,1,140,1,Unknown,Basic,102.5,0,0,0,1,0,0,26,0,6,8,4,11.75,0,0,6,12,0,0,0,7.6,2.6,0.32,Dropout_Enrolled
1,43,1,9500,1,1,121,1,Basic,Basic,115.4,1,0,0,1,0,1,24,0,8,8,7,11.971429,0,0,8,8,7,11.971429,0,12.7,3.7,-1.7,Dropout_Enrolled
1,43,1,9070,1,1,150,1,Higher,Secondary,126.4,0,0,0,1,1,0,26,5,7,8,7,13.285714,0,3,8,11,7,12.142857,0,12.4,0.5,1.79,Dropout_Enrolled
1,1,1,9130,1,1,154,1,Higher,Higher,137.2,1,0,1,1,1,0,18,0,6,11,5,13.625,0,0,6,9,4,11.75,0,16.2,0.3,-0.92,Dropout_Enrolled
1,39,1,9500,1,1,130,1,Basic,Basic,143.8,0,0,0,1,1,0,27,0,8,8,7,15.57,0,0,8,8,7,15.57,0,10.8,1.4,1.74,Dropout_Enrolled
2,18,2,8014,0,1,140,1,Basic,Basic,120.4,0,0,1,0,0,0,39,0,5,5,0,0,0,0,4,4,0,0,0,9.4,-0.8,-3.12,Dropout_Enrolled
1,17,2,9147,1,1,116,1,Secondary,Basic,114.6,1,0,0,1,0,0,19,0,5,15,2,10.75,0,0,5,11,2,10,0,13.9,-0.3,0.79,Dropout_Enrolled
1,1,2,9500,1,1,117,1,Basic,Secondary,112.1,0,0,0,1,0,1,20,0,7,9,5,13.188,0,0,8,9,7,12.892857,0,11.1,0.6,2.02,Dropout_Enrolled
1,1,1,9238,1,1,116,1,Basic,Basic,108.7,1,0,0,1,1,0,18,0,6,9,5,11,0,0,6,12,0,0,0,11.1,0.6,2.02,Dropout_Enrolled
1,43,1,9500,1,1,130,1,Basic,Basic,100,0,0,0,1,0,0,20,0,7,11,6,11.616667,0,0,7,7,7,13,0,13.9,-0.3,0.79,Dropout_Enrolled
4,39,1,9500,1,19,133.1,1,Basic,Basic,140,0,0,0,1,0,1,26,0,7,13,5,12.74,0,0,8,12,6,10.978571,0,16.2,0.3,-0.92,Dropout_Enrolled
1,42,1,9500,1,1,133.1,41,Higher,Secondary,100,1,0,0,0,0,0,33,1,7,10,5,12.16,0,0,6,7,5,11.34,0,12.4,0.5,1.79,Dropout_Enrolled
1,43,1,9773,1,1,127,1,Secondary,Secondary,110,0,0,1,0,1,0,19,0,6,10,3,11.666667,0,0,6,11,2,10,0,16.2,0.3,-0.92,Dropout_Enrolled
1,39,1,9670,1,1,133.1,1,Basic,Basic,97.4,0,0,1,0,1,0,44,0,6,9,1,14,0,0,6,6,0,0,0,12.7,3.7,-1.7,Dropout_Enrolled
1,1,2,9130,1,1,140,1,Basic,Basic,129.5,1,0,0,1,0,0,18,0,5,10,4,13.5,1,0,5,5,5,13.4,0,12.7,3.7,-1.7,Dropout_Enrolled
1,1,3,9670,1,1,134,1,Secondary,Basic,128.4,1,0,0,0,1,0,19,0,5,5,0,0,0,0,4,4,0,0,0,7.6,2.6,0.32,Dropout_Enrolled
2,1,1,9991,0,2,120,1,Basic,Basic,129.2,0,0,0,1,0,0,31,4,10,16,5,11.4,0,4,10,10,6,12.833333,0,9.4,-0.8,-3.12,Dropout_Enrolled
1,17,1,9147,1,1,110,1,Secondary,Secondary,99,0,0,0,1,1,0,21,0,5,5,5,11,0,0,5,11,3,11.428571,0,10.8,1.4,1.74,Dropout_Enrolled
1,17,5,9238,1,1,134,1,Basic,Basic,126,0,0,1,0,0,0,21,0,6,10,5,11.833333,0,0,6,10,5,13.2,0,13.9,-0.3,0.79,Dropout_Enrolled
1,39,1,9085,1,1,130,1,Basic,Basic,110,0,0,0,1,0,1,25,0,6,13,3,11.666667,0,0,6,14,2,11.333333,0,11.1,0.6,2.02,Dropout_Enrolled
1,17,2,9853,1,1,118,1,Basic,Basic,112.1,1,0,0,1,0,0,23,0,6,11,4,11.25,0,0,6,10,5,10.2,0,7.6,2.6,0.32,Dropout_Enrolled
2,39,1,9991,0,1,120,1,Basic,Basic,132.9,0,0,0,1,1,0,32,0,5,11,4,10.75,0,0,5,11,4,11.333333,0,13.9,-0.3,0.79,Dropout_Enrolled
1,1,4,171,1,1,132,1,Secondary,Basic,138,1,0,1,0,1,0,19,0,0,0,0,0,0,0,0,0,0,0,0,15.5,2.8,-4.06,Dropout_Enrolled
1,17,4,9670,1,1,125,1,Secondary,Secondary,125.4,1,0,0,1,1,0,19,0,5,6,3,13.333333,0,0,5,5,1,11,0,7.6,2.6,0.32,Dropout_Enrolled
1,1,4,9238,1,1,125,1,Basic,Secondary,122.6,1,1,0,1,0,0,18,0,6,9,5,11.833333,0,0,6,8,2,11.5,0,13.9,-0.3,0.79,Dropout_Enrolled
1,51,1,9147,1,1,130,1,Basic,Basic,115.7,0,0,0,1,1,0,20,0,5,7,5,11,0,0,5,7,3,10,0,8.9,1.4,3.51,Dropout_Enrolled
1,1,1,9254,1,1,128,1,Basic,Basic,120,1,0,0,1,0,1,20,0,6,6,6,14.5,0,0,6,7,5,15,0,12.4,0.5,1.79,Dropout_Enrolled
1,51,1,9147,1,19,133.1,1,Basic,Basic,112.1,0,0,1,0,1,0,38,0,5,5,0,0,0,0,5,5,0,0,0,8.9,1.4,3.51,Dropout_Enrolled
2,7,1,9147,1,3,120,1,Basic,Basic,120,0,0,0,1,0,0,33,3,8,9,5,12.6,2,2,7,13,5,11.25,0,10.8,1.4,1.74,Dropout_Enrolled
2,39,1,9119,1,1,110,1,Basic,Basic,150,1,0,0,1,1,0,46,0,5,6,0,0,0,0,5,5,0,0,0,7.6,2.6,0.32,Dropout_Enrolled
4,39,1,9991,0,1,120,1,Basic,Basic,110,0,0,0,1,0,0,37,0,5,14,2,10,0,0,5,7,3,11.333333,0,12.7,3.7,-1.7,Dropout_Enrolled
1,1,1,9500,1,1,139,1,Basic,Basic,121.3,1,0,0,1,0,1,19,0,8,10,6,11.833333,0,0,8,10,6,11.833333,0,9.4,-0.8,-3.12,Dropout_Enrolled
2,39,1,9238,1,1,120,1,Basic,Basic,134,0,0,0,1,1,1,40,0,6,7,6,12.333333,0,0,6,10,4,12.75,0,8.9,1.4,3.51,Dropout_Enrolled
1,1,3,9085,1,1,134,1,Basic,Basic,129.1,0,0,0,1,0,0,19,0,5,7,3,12,0,0,5,7,4,13.5,0,7.6,2.6,0.32,Dropout_Enrolled
1,17,2,9254,1,1,123,1,Basic,Basic,113.2,1,0,1,1,0,0,19,0,6,10,6,12.166667,0,0,6,8,5,11.666667,0,16.2,0.3,-0.92,Dropout_Enrolled
1,1,1,9500,1,1,141,1,Secondary,Secondary,127.8,0,0,0,1,0,1,19,0,7,7,0,0,2,0,7,7,0,0,2,7.6,2.6,0.32,Dropout_Enrolled
1,39,1,9991,0,1,130,1,Secondary,Basic,115,0,0,0,1,1,0,25,0,5,7,0,0,0,0,5,8,0,0,0,16.2,0.3,-0.92,Dropout_Enrolled
1,1,3,9670,1,1,121,1,Secondary,Basic,111.9,1,0,0,1,1,1,20,0,6,7,6,11.333333,0,0,6,10,4,10.571429,0,10.8,1.4,1.74,Dropout_Enrolled
1,1,1,9556,1,1,180,103,Higher,Higher,183.5,1,0,0,1,0,0,18,0,7,8,4,12,0,0,8,8,0,0,0,16.2,0.3,-0.92,Dropout_Enrolled
2,44,1,9991,0,39,140,1,Basic,Basic,140,0,0,0,1,0,0,41,2,6,10,4,12.25,0,3,7,9,6,12.5,0,9.4,-0.8,-3.12,Dropout_Enrolled
1,39,1,9670,1,1,140,1,Basic,Basic,120,0,0,0,1,0,0,28,0,6,8,1,10,0,0,6,9,0,0,0,10.8,1.4,1.74,Dropout_Enrolled
1,1,6,9500,1,1,138,1,Basic,Basic,124.8,1,0,0,1,0,0,18,0,8,8,7,13.414286,0,0,8,8,7,13.414286,0,12.7,3.7,-1.7,Dropout_Enrolled
1,39,1,9556,1,1,140,1,Basic,Basic,106,1,0,1,0,0,1,24,0,7,14,5,12.36,0,1,8,15,5,12,0,8.9,1.4,3.51,Dropout_Enrolled
1,43,1,9500,1,1,125,1,Basic,Basic,123.6,1,0,0,1,0,1,18,0,7,8,5,12.86,0,0,7,8,5,12.86,0,7.6,2.6,0.32,Dropout_Enrolled
5,39,1,9003,1,19,133.1,1,Basic,Secondary,119.4,0,0,1,0,0,0,27,0,6,6,0,0,0,0,6,7,0,0,0,8.9,1.4,3.51,Dropout_Enrolled
1,1,1,9070,1,1,145,1,Secondary,Basic,127.5,1,0,0,1,1,0,20,0,6,6,4,12,0,0,6,8,2,11.333333,0,10.8,1.4,1.74,Dropout_Enrolled
1,39,1,9085,1,1,110,1,Higher,Secondary,142.5,0,0,1,0,1,0,37,5,7,7,5,12,0,3,7,7,3,11.666667,0,8.9,1.4,3.51,Dropout_Enrolled
4,39,1,9500,1,19,110,1,Basic,Basic,151,0,0,1,0,1,0,47,0,7,7,0,0,7,0,8,8,0,0,8,15.5,2.8,-4.06,Dropout_Enrolled
1,43,1,9500,1,1,140,100,Secondary,Secondary,128.2,0,0,0,1,0,0,39,0,7,0,0,0,0,0,8,0,0,0,0,12.7,3.7,-1.7,Dropout_Enrolled
1,39,1,9003,1,19,133.1,1,Higher,Secondary,120,0,0,0,1,1,0,25,0,3,4,0,0,0,0,3,5,0,0,0,16.2,0.3,-0.92,Dropout_Enrolled
1,43,2,9147,1,1,126,1,Secondary,Basic,100,1,0,0,1,1,0,22,0,5,11,0,0,0,0,5,7,1,10,1,16.2,0.3,-0.92,Dropout_Enrolled
1,39,1,8014,0,1,140,1,Basic,Secondary,105,0,0,0,1,0,0,26,0,6,14,3,10.666667,1,0,6,9,5,11.2,0,15.5,2.8,-4.06,Dropout_Enrolled
1,1,1,9147,1,1,132,1,Basic,Basic,131.3,1,0,0,1,0,0,18,0,5,8,4,12,0,0,5,8,4,12.25,0,9.4,-0.8,-3.12,Dropout_Enrolled
1,1,5,9147,1,1,134,1,Higher,Higher,134.7,0,0,0,1,1,0,22,1,5,10,4,11.75,0,0,5,10,3,11,0,7.6,2.6,0.32,Dropout_Enrolled
1,17,6,9500,1,1,148,1,Secondary,Basic,131.7,1,0,0,1,0,0,19,0,7,8,5,14,0,0,7,7,0,0,0,13.9,-0.3,0.79,Dropout_Enrolled
1,42,1,9147,1,1,130,1,Unknown,Unknown,109.8,1,0,0,0,1,0,23,0,3,3,0,0,0,0,2,2,0,0,0,7.6,2.6,0.32,Dropout_Enrolled
1,1,1,171,1,1,134,1,Higher,Higher,141.7,1,0,0,1,1,0,18,0,0,0,0,0,0,0,0,0,0,0,0,7.6,2.6,0.32,Dropout_Enrolled
1,1,1,9238,1,1,124,1,Basic,Basic,121.2,0,0,0,1,0,0,19,0,6,12,2,13,0,0,6,9,6,10.833333,0,7.6,2.6,0.32,Dropout_Enrolled
1,43,1,171,1,39,140,1,Basic,Basic,140,0,0,0,0,1,0,25,0,0,0,0,0,0,0,0,0,0,0,0,15.5,2.8,-4.06,Dropout_Enrolled
1,1,4,9773,1,1,143,1,Secondary,Higher,129.7,1,0,0,1,0,0,20,0,4,4,0,0,0,0,6,0,0,0,0,8.9,1.4,3.51,Dropout_Enrolled
1,42,1,9003,1,1,140,1,Secondary,Higher,140,1,0,0,1,1,0,23,0,6,14,5,12,0,0,6,12,5,12.142857,0,15.5,2.8,-4.06,Dropout_Enrolled
1,42,1,9853,1,1,120,1,Secondary,Basic,113.9,1,0,0,1,0,0,21,0,6,8,4,12.25,0,0,6,13,3,10.333333,0,12.7,3.7,-1.7,Dropout_Enrolled
1,1,1,9085,1,1,150,1,Secondary,Higher,144.6,0,0,1,0,0,0,24,0,5,6,1,13,0,0,5,5,0,0,0,7.6,2.6,0.32,Dropout_Enrolled
1,7,1,9147,1,3,120,1,Secondary,Secondary,120,0,0,0,1,0,0,33,2,5,9,2,14,0,0,5,5,0,0,0,12.4,0.5,1.79,Dropout_Enrolled
1,51,1,9070,1,1,143,1,Secondary,Secondary,120,1,0,0,1,0,0,21,3,10,10,10,13,0,5,11,11,10,11.4,0,11.1,0.6,2.02,Dropout_Enrolled
1,1,1,9147,1,1,123,1,Secondary,Secondary,118.8,1,0,0,1,0,0,21,0,5,9,3,10.666667,0,0,5,13,2,12.5,0,7.6,2.6,0.32,Dropout_Enrolled
2,39,1,9991,0,1,140,1,Basic,Secondary,150,0,0,1,1,1,0,35,0,5,6,5,10.8,0,0,5,7,5,12,2,9.4,-0.8,-3.12,Dropout_Enrolled
1,17,1,9991,0,1,160,1,Unknown,Unknown,161.8,1,0,1,1,1,0,33,0,5,8,2,10.5,0,0,5,5,0,0,0,7.6,2.6,0.32,Dropout_Enrolled
2,39,1,9991,0,1,130,1,Basic,Basic,140,1,0,0,1,1,0,31,0,5,8,1,11,0,0,5,5,1,13,0,9.4,-0.8,-3.12,Dropout_Enrolled
1,17,1,9500,1,1,145,1,Secondary,Secondary,131.4,0,0,0,1,0,0,19,0,7,7,7,13.442857,0,0,8,8,7,13.771429,0,13.9,-0.3,0.79,Dropout_Enrolled
1,1,5,9500,1,1,144,1,Basic,Basic,126.8,1,0,1,0,0,0,18,0,7,0,0,0,0,0,8,0,0,0,0,9.4,-0.8,-3.12,Dropout_Enrolled
1,7,1,9085,1,3,130,1,Secondary,Basic,130,0,0,0,1,0,0,34,0,6,0,0,0,0,0,6,0,0,0,0,15.5,2.8,-4.06,Dropout_Enrolled
1,1,1,9085,1,1,131,1,Basic,Basic,130.7,0,0,1,1,0,0,21,0,5,9,2,11.5,0,0,5,13,4,11,1,10.8,1.4,1.74,Dropout_Enrolled
1,1,1,9130,1,1,164,1,Unknown,Secondary,163,0,0,0,1,0,0,18,0,6,0,0,0,0,0,6,0,0,0,0,7.6,2.6,0.32,Dropout_Enrolled
1,7,1,8014,0,3,140,1,Basic,Secondary,140,0,0,0,0,0,0,26,0,5,9,0,0,0,0,5,10,0,0,0,9.4,-0.8,-3.12,Dropout_Enrolled
4,7,1,9500,1,3,130,1,Higher,Basic,130,0,0,0,1,0,0,43,0,7,7,3,13.833333,1,0,7,7,0,0,0,16.2,0.3,-0.92,Dropout_Enrolled
2,1,1,9991,0,1,150,1,Basic,Basic,131.8,0,0,0,0,0,0,29,0,5,6,4,12.25,0,0,5,6,5,10.166667,0,10.8,1.4,1.74,Dropout_Enrolled
3,17,1,9238,1,1,138,1,Basic,Basic,133.5,1,0,0,1,0,1,21,0,6,8,3,10.2,0,0,6,13,4,12.25,0,12.7,3.7,-1.7,Dropout_Enrolled
2,39,1,9238,1,19,133.1,1,Basic,Basic,98.5,0,0,0,1,0,0,48,0,6,14,6,11.333333,0,0,6,11,5,12.4,0,15.5,2.8,-4.06,Dropout_Enrolled
1,17,1,9147,1,1,120,1,Higher,Higher,112,0,0,0,1,0,0,20,0,5,10,4,11,0,0,5,7,4,11.5,0,15.5,2.8,-4.06,Dropout_Enrolled
1,43,1,9670,1,6,170,1,Unknown,Unknown,111.6,0,0,0,1,1,0,35,1,5,5,1,14,0,0,5,5,0,0,0,9.4,-0.8,-3.12,Dropout_Enrolled
1,1,1,171,1,1,127,1,Secondary,Secondary,126.3,1,0,1,1,1,0,21,0,0,0,0,0,0,0,0,0,0,0,0,16.2,0.3,-0.92,Dropout_Enrolled
1,39,1,9991,0,19,133.1,1,Basic,Basic,155.5,1,0,1,0,1,0,39,0,5,6,5,10.6,0,0,5,7,5,14.666667,0,10.8,1.4,1.74,Dropout_Enrolled
1,17,4,9238,1,1,133.1,1,Secondary,Basic,95,1,0,0,1,0,1,19,0,6,12,6,11.666667,0,0,6,7,0,0,0,15.5,2.8,-4.06,Dropout_Enrolled
1,17,6,9500,1,1,140,1,Secondary,Secondary,130.7,1,0,0,1,1,1,18,0,7,7,7,12.718571,0,0,8,11,8,12.805556,0,11.1,0.6,2.02,Dropout_Enrolled
1,1,1,9670,1,1,121,1,Basic,Basic,116.5,1,0,0,1,0,0,23,0,5,7,3,11.333333,0,0,5,5,4,11.25,0,7.6,2.6,0.32,Dropout_Enrolled
2,39,1,9003,1,1,150,1,Higher,Higher,120,0,0,1,0,0,0,34,1,6,10,6,14.333333,0,0,6,9,6,12.833333,0,11.1,0.6,2.02,Dropout_Enrolled
1,1,6,9500,1,1,122,1,Secondary,Secondary,114.3,1,0,0,1,1,0,18,0,7,8,6,13.976667,0,0,8,12,6,12.041667,1,11.1,0.6,2.02,Dropout_Enrolled
2,43,1,9991,0,3,140,1,Basic,Basic,140,0,0,1,1,0,0,34,4,10,25,5,12.2,0,3,9,18,8,12.222222,0,16.2,0.3,-0.92,Dropout_Enrolled
1,39,1,9130,1,1,133.1,1,Secondary,Basic,120,1,0,0,1,1,0,29,0,5,11,1,18,2,0,5,10,3,13.333333,2,10.8,1.4,1.74,Dropout_Enrolled
1,1,6,9500,1,1,138,1,Secondary,Basic,123,1,0,0,1,0,0,19,0,7,10,5,13.44,0,0,7,8,6,13.066667,0,12.4,0.5,1.79,Dropout_Enrolled
1,1,1,9853,1,1,133,1,Secondary,Basic,131.3,1,0,0,1,0,0,20,0,6,9,5,14.333333,0,4,8,8,8,12.625,0,15.5,2.8,-4.06,Dropout_Enrolled
1,1,5,9070,1,1,134,1,Unknown,Secondary,129.8,1,0,0,1,0,0,18,0,6,7,2,11,0,0,6,0,0,0,0,9.4,-0.8,-3.12,Dropout_Enrolled
1,1,5,9119,1,1,131,1,Secondary,Basic,126.8,0,0,0,0,1,1,18,0,5,6,5,12.2,0,0,5,8,4,12,0,8.9,1.4,3.51,Dropout_Enrolled
1,7,1,9003,1,3,140,1,Secondary,Secondary,140,0,0,0,1,1,0,50,2,6,8,2,13.5,0,1,6,9,1,13,0,15.5,2.8,-4.06,Dropout_Enrolled
1,17,1,9238,1,1,120,1,Basic,Basic,114.8,1,0,1,0,0,0,19,0,6,10,5,11.714286,0,0,6,13,2,10.666667,0,16.2,0.3,-0.92,Dropout_Enrolled
1,1,1,9670,1,1,133.1,1,Higher,Secondary,155,0,0,0,1,0,0,22,0,5,6,3,11.333333,0,0,5,5,0,0,0,9.4,-0.8,-3.12,Dropout_Enrolled
1,17,2,9773,1,1,126,1,Basic,Basic,129.5,1,0,1,0,0,0,18,0,6,9,5,12.2,0,0,6,9,4,11.75,0,10.8,1.4,1.74,Dropout_Enrolled
2,39,1,9991,0,19,133.1,1,Basic,Basic,137.2,0,0,1,0,0,0,32,0,5,5,0,0,0,0,5,6,0,0,0,10.8,1.4,1.74,Dropout_Enrolled
1,17,1,9085,1,1,120,1,Basic,Basic,122.5,0,0,0,0,1,0,19,0,6,11,5,13.6,0,0,6,11,5,13.666667,0,11.1,0.6,2.02,Dropout_Enrolled
1,1,1,171,1,1,123,1,Secondary,Higher,118.8,0,0,0,1,1,0,19,4,10,10,5,11,0,2,7,8,2,10,0,8.9,1.4,3.51,Dropout_Enrolled
1,1,4,9147,1,1,120,1,Basic,Basic,111.3,0,0,0,1,1,0,20,0,5,8,5,10.2,0,0,5,7,5,11.2,0,12.4,0.5,1.79,Dropout_Enrolled
1,44,1,171,1,39,140,1,Secondary,Secondary,140,0,0,0,1,1,0,21,0,0,0,0,0,0,0,0,0,0,0,0,15.5,2.8,-4.06,Dropout_Enrolled
2,43,1,9130,1,9,133.1,1,Unknown,Unknown,128.2,0,0,0,1,1,0,28,0,5,9,0,0,0,0,5,5,0,0,0,7.6,2.6,0.32,Dropout_Enrolled
1,39,1,9238,1,1,160,1,Basic,Secondary,124,0,0,1,1,1,0,28,2,8,15,7,11,0,0,6,17,1,10,0,10.8,1.4,1.74,Dropout_Enrolled
4,39,1,8014,0,1,133.1,1,Basic,Basic,140,0,0,0,1,0,1,43,0,6,6,0,0,0,0,5,5,0,0,0,8.9,1.4,3.51,Dropout_Enrolled
1,17,1,9147,1,1,162,1,Secondary,Basic,138.6,1,0,0,1,0,0,19,0,5,10,1,11,0,0,5,13,0,0,0,12.7,3.7,-1.7,Dropout_Enrolled
1,43,1,9991,0,1,133.1,1,Basic,Basic,136.1,0,0,0,1,1,1,42,0,5,14,1,10,0,0,5,14,1,11,0,13.9,-0.3,0.79,Dropout_Enrolled
1,1,1,9773,1,1,150,1,Secondary,Secondary,138.1,1,0,0,1,0,0,19,0,6,7,6,14,0,0,6,7,5,15,0,11.1,0.6,2.02,Dropout_Enrolled
1,1,1,171,1,1,124,1,Higher,Higher,118.4,1,0,0,1,1,0,18,0,0,0,0,0,0,0,0,0,0,0,0,7.6,2.6,0.32,Dropout_Enrolled
1,43,1,9991,0,1,100,1,Higher,Basic,117.9,0,0,0,0,1,0,40,0,5,5,0,0,0,0,5,6,0,0,0,10.8,1.4,1.74,Dropout_Enrolled
1,1,1,171,1,1,136,1,Higher,Basic,121.7,1,0,0,1,0,0,18,0,0,0,0,0,0,0,0,0,0,0,0,9.4,-0.8,-3.12,Dropout_Enrolled
1,15,1,9670,1,1,133.1,41,Secondary,Secondary,128.2,0,0,1,0,1,0,18,0,6,6,4,11.25,0,0,6,7,3,12.333333,0,8.9,1.4,3.51,Dropout_Enrolled
1,43,1,9773,1,1,129,1,Secondary,Secondary,129,0,0,0,0,0,0,21,0,6,7,6,12,0,0,6,6,6,12,0,10.8,1.4,1.74,Dropout_Enrolled
2,39,1,9119,1,1,140,1,Unknown,Unknown,140,0,0,0,0,1,0,34,0,5,5,0,0,0,0,5,5,0,0,0,15.5,2.8,-4.06,Dropout_Enrolled
1,1,1,9853,1,1,140,1,Basic,Basic,124.6,1,0,0,1,0,0,18,0,7,7,6,11.666667,0,0,7,8,6,13.5,0,16.2,0.3,-0.92,Dropout_Enrolled
1,17,3,9853,1,1,133.1,1,Secondary,Secondary,134.8,1,0,0,1,0,0,18,0,6,12,0,0,0,0,6,12,0,0,0,7.6,2.6,0.32,Dropout_Enrolled
2,39,1,9500,1,1,140,1,Basic,Basic,110.5,0,0,0,1,0,0,31,0,7,0,0,0,0,0,8,0,0,0,0,12.7,3.7,-1.7,Dropout_Enrolled
1,39,1,9003,1,1,130,1,Basic,Basic,100,0,0,0,0,1,0,29,0,6,9,0,0,0,0,6,6,0,0,0,13.9,-0.3,0.79,Dropout_Enrolled
2,39,2,9003,1,19,133.1,1,Basic,Basic,110,0,0,0,0,1,0,32,2,8,12,2,11.5,2,0,7,9,0,0,0,15.5,2.8,-4.06,Dropout_Enrolled
1,1,5,9853,1,1,141,1,Basic,Basic,133,1,0,0,1,0,0,18,0,6,8,5,12.4,0,0,6,12,5,10.4,0,9.4,-0.8,-3.12,Dropout_Enrolled
1,1,6,9500,1,1,139,1,Basic,Basic,128.5,1,0,0,1,0,0,19,0,8,10,6,13.066667,0,0,8,10,6,13.066667,0,12.7,3.7,-1.7,Dropout_Enrolled
1,1,2,9773,1,1,130,1,Basic,Basic,137.4,0,0,0,1,0,0,19,0,6,6,6,15,0,0,6,7,6,14,0,15.5,2.8,-4.06,Dropout_Enrolled
1,39,1,9556,1,19,133.1,1,Higher,Secondary,110.5,0,0,0,1,1,0,37,0,7,15,0,0,0,0,7,13,0,0,1,11.1,0.6,2.02,Dropout_Enrolled
1,1,1,9773,1,1,108,1,Unknown,Basic,105.9,0,0,0,1,1,0,20,0,6,11,4,10.75,0,0,6,13,2,10,0,7.6,2.6,0.32,Dropout_Enrolled
1,1,1,9500,1,1,133,1,Higher,Basic,126.7,0,0,0,1,0,0,19,0,7,12,4,12.45,0,0,7,11,5,11.7,0,16.2,0.3,-0.92,Dropout_Enrolled
1,1,1,171,1,1,125,1,Basic,Basic,136.2,1,0,1,1,1,0,21,6,12,12,11,11.545455,0,4,11,18,9,11.7,1,8.9,1.4,3.51,Dropout_Enrolled
1,1,1,171,1,1,150,1,Higher,Higher,154.6,1,0,0,1,0,0,19,6,12,13,12,12.333333,0,4,11,12,10,12.727273,0,8.9,1.4,3.51,Dropout_Enrolled
1,1,5,9500,1,1,135,1,Basic,Basic,124,1,0,0,1,0,1,19,0,8,8,7,12.771429,1,0,8,8,7,12.771429,1,9.4,-0.8,-3.12,Dropout_Enrolled
1,39,1,9773,1,19,133.1,1,Basic,Secondary,115,1,0,1,0,1,0,25,0,6,10,4,13,0,0,6,9,4,13.75,0,12.7,3.7,-1.7,Dropout_Enrolled
1,43,2,9670,1,1,130,1,Basic,Secondary,127.6,1,0,0,1,1,0,22,4,6,6,6,11.833333,0,0,6,11,4,11.142857,0,10.8,1.4,1.74,Dropout_Enrolled
1,1,1,9853,1,1,148,1,Basic,Basic,143.5,0,0,0,1,0,1,19,0,7,8,6,12.833333,0,0,6,6,0,0,0,13.9,-0.3,0.79,Dropout_Enrolled
1,39,1,9991,0,1,130,1,Basic,Basic,111.9,0,0,1,1,0,0,36,0,5,5,0,0,0,0,5,5,0,0,0,12.7,3.7,-1.7,Dropout_Enrolled
1,17,3,9254,1,1,127,1,Secondary,Basic,116.9,1,0,1,1,0,0,18,0,6,7,5,12.2,0,0,6,10,4,12.25,0,12.4,0.5,1.79,Dropout_Enrolled
1,39,1,9991,0,1,150,1,Higher,Higher,135.8,0,0,1,1,1,0,29,1,5,9,3,11,0,0,5,11,2,13.5,0,12.7,3.7,-1.7,Dropout_Enrolled
1,39,2,9670,1,19,133.1,1,Unknown,Unknown,100,1,0,0,0,1,0,27,0,5,8,1,11,0,0,5,6,3,10.666667,1,7.6,2.6,0.32,Dropout_Enrolled
1,17,1,9254,1,1,133.1,1,Secondary,Secondary,131,1,0,0,1,0,0,21,0,6,12,3,11,0,0,6,12,2,11,0,9.4,-0.8,-3.12,Dropout_Enrolled
1,43,1,9238,1,1,143,1,Secondary,Basic,126.6,0,0,1,0,0,0,21,5,10,18,8,11.5,0,0,6,12,4,10,0,9.4,-0.8,-3.12,Dropout_Enrolled
1,43,1,9238,1,1,124,1,Secondary,Secondary,118.8,1,0,1,0,0,0,22,6,10,16,6,11.833333,0,2,7,8,2,13,0,16.2,0.3,-0.92,Dropout_Enrolled
2,39,1,9500,1,1,100,1,Basic,Basic,130,0,0,0,1,1,1,33,0,8,16,1,10,1,0,8,16,1,10,1,12.7,3.7,-1.7,Dropout_Enrolled
1,43,1,9130,1,1,130,1,Secondary,Secondary,130,1,0,0,1,1,0,33,0,5,12,1,13,2,0,5,7,3,14,0,9.4,-0.8,-3.12,Dropout_Enrolled
1,39,1,9003,1,1,133.1,1,Basic,Basic,110,1,0,0,1,1,0,31,0,6,8,0,0,0,0,6,10,0,0,0,16.2,0.3,-0.92,Dropout_Enrolled
1,1,1,9773,1,1,127,1,Basic,Basic,120.7,1,0,0,1,0,0,20,0,6,6,5,13.2,0,0,6,7,0,0,0,15.5,2.8,-4.06,Dropout_Enrolled
1,17,3,9853,1,1,140,1,Basic,Basic,126.7,1,0,0,1,0,0,19,0,6,9,5,12.4,0,0,6,10,3,10.666667,0,10.8,1.4,1.74,Dropout_Enrolled
1,39,1,9500,1,1,100,1,Basic,Secondary,114,1,0,1,0,0,0,31,0,7,8,5,12.56,0,0,7,8,5,12.56,0,7.6,2.6,0.32,Dropout_Enrolled
1,1,1,9147,1,1,148,1,Basic,Secondary,138.3,1,0,0,1,1,0,19,0,5,6,4,13.75,0,0,5,5,0,0,0,12.4,0.5,1.79,Dropout_Enrolled
1,17,1,9500,1,1,131,1,Basic,Basic,123.8,1,0,0,1,0,0,19,0,7,0,0,0,0,0,8,0,0,0,0,15.5,2.8,-4.06,Dropout_Enrolled
1,43,1,9254,1,1,142,1,Basic,Basic,125.9,0,0,0,1,0,1,19,0,6,0,0,0,0,0,6,11,1,10,0,10.8,1.4,1.74,Dropout_Enrolled
2,39,1,9147,1,1,160,1,Basic,Basic,110,0,0,0,1,1,0,30,0,5,8,2,11,0,0,5,6,4,11.5,0,15.5,2.8,-4.06,Dropout_Enrolled
1,43,1,9147,1,1,127,25,Secondary,Higher,124.2,1,0,0,1,1,0,23,0,5,6,1,10,0,0,5,5,0,0,0,15.5,2.8,-4.06,Dropout_Enrolled
1,1,1,9773,1,1,109,1,Higher,Higher,111.8,1,0,1,1,1,0,25,0,6,8,6,11.571429,0,0,6,9,6,11.571429,0,15.5,2.8,-4.06,Dropout_Enrolled
1,7,1,9991,0,40,120,1,Higher,Higher,120,0,0,0,1,0,0,27,0,5,5,5,15.2,0,0,5,6,5,14,0,11.1,0.6,2.02,Dropout_Enrolled
1,1,3,9085,1,1,126,1,Basic,Secondary,132,1,0,0,1,0,1,18,0,5,8,3,15,2,0,5,9,3,11.666667,0,9.4,-0.8,-3.12,Dropout_Enrolled
1,17,1,9853,1,1,147,1,Basic,Basic,142.8,1,0,0,1,0,0,23,0,6,11,2,10,0,0,6,15,2,11,0,7.6,2.6,0.32,Dropout_Enrolled
1,17,1,9670,1,1,132,1,Basic,Secondary,119.1,0,0,1,1,1,0,18,0,6,6,3,12.666667,0,0,6,11,4,11.142857,0,10.8,1.4,1.74,Dropout_Enrolled
1,39,1,9119,1,1,138.7,1,Secondary,Secondary,111.3,0,0,0,1,1,0,27,1,6,7,3,12,0,2,6,7,2,11,0,13.9,-0.3,0.79,Dropout_Enrolled
2,39,1,9773,1,1,120,1,Basic,Basic,155.5,0,0,0,1,1,0,47,0,6,12,5,13.8,0,0,6,13,4,14,0,12.7,3.7,-1.7,Dropout_Enrolled
1,1,1,9254,1,1,127,1,Basic,Basic,120.7,0,0,1,0,0,0,22,0,6,10,5,11,0,0,6,12,0,0,0,10.8,1.4,1.74,Dropout_Enrolled
1,1,1,9670,1,1,117,1,Secondary,Basic,109.3,0,0,1,0,0,1,19,0,6,7,5,12,0,0,6,9,4,12.5,0,12.4,0.5,1.79,Dropout_Enrolled
1,39,1,9130,1,19,133.1,1,Basic,Higher,140,1,0,1,1,1,0,24,0,6,13,5,13.142857,0,0,6,15,3,12.666667,0,16.2,0.3,-0.92,Dropout_Enrolled
1,39,1,9991,0,1,150,1,Secondary,Basic,123,0,0,0,1,1,0,27,0,5,8,4,11.5,0,0,5,9,3,10.333333,0,12.7,3.7,-1.7,Dropout_Enrolled
1,17,5,9254,1,1,118,1,Basic,Basic,120.5,1,0,0,1,1,0,19,0,6,12,4,12.5,0,0,6,12,4,10.25,0,7.6,2.6,0.32,Dropout_Enrolled
1,39,1,9991,0,3,120,1,Basic,Basic,141,0,0,0,1,0,0,29,10,15,15,11,11.454545,0,9,13,16,11,11.545455,0,10.8,1.4,1.74,Dropout_Enrolled
4,39,1,9853,1,19,133.1,1,Basic,Basic,108,0,0,1,0,0,0,33,0,7,7,7,12.857143,0,0,7,8,6,12.666667,0,8.9,1.4,3.51,Dropout_Enrolled
1,39,1,9991,0,1,120,1,Secondary,Secondary,96,1,0,0,0,1,0,38,0,5,5,0,0,0,0,5,5,0,0,0,8.9,1.4,3.51,Dropout_Enrolled
4,39,1,8014,0,1,138,1,Basic,Basic,127,0,0,0,0,0,0,37,0,4,4,0,0,0,0,5,10,0,0,0,10.8,1.4,1.74,Dropout_Enrolled
1,17,1,9070,1,1,131,1,Basic,Basic,125.1,0,0,0,1,1,0,18,0,6,7,6,12.333333,0,0,6,10,5,10.8,4,16.2,0.3,-0.92,Dropout_Enrolled
2,51,1,9500,1,1,130,1,Basic,Basic,120,0,0,0,1,1,0,44,0,7,11,5,12.1,0,0,7,10,5,12.6,0,11.1,0.6,2.02,Dropout_Enrolled
1,17,1,9853,1,1,160,1,Basic,Basic,139,1,0,0,1,0,1,18,0,6,8,5,12.2,0,0,6,13,0,0,0,9.4,-0.8,-3.12,Dropout_Enrolled
1,17,3,9119,1,1,138,1,Higher,Higher,125.4,1,1,0,1,1,0,19,0,5,10,3,13.333333,0,0,5,9,4,10.75,0,8.9,1.4,3.51,Dropout_Enrolled
1,17,1,9147,1,1,148,1,Basic,Basic,134,0,0,0,1,1,0,18,0,5,9,0,0,0,0,5,5,0,0,0,7.6,2.6,0.32,Dropout_Enrolled
1,1,1,9670,1,1,125,1,Basic,Secondary,122.6,0,0,0,1,1,0,21,0,5,7,5,11.166667,0,0,5,5,4,11,0,9.4,-0.8,-3.12,Dropout_Enrolled
1,1,4,9500,1,1,126,1,Secondary,Secondary,120.2,0,0,0,1,0,1,19,0,7,9,5,14.06,0,0,7,9,7,11.242857,0,12.4,0.5,1.79,Dropout_Enrolled
1,18,3,9147,1,1,133.1,1,Secondary,Basic,101,1,0,0,0,1,0,23,0,5,0,0,0,0,0,5,0,0,0,0,8.9,1.4,3.51,Dropout_Enrolled
1,17,1,9254,1,1,122,1,Basic,Basic,118.2,0,0,0,1,0,1,20,0,6,10,4,11.25,0,0,6,6,6,10.5,0,12.4,0.5,1.79,Dropout_Enrolled
1,39,1,9500,1,1,120,1,Secondary,Higher,125.3,0,0,1,1,1,0,30,0,7,12,4,14.4,0,0,7,9,6,13.5,0,12.4,0.5,1.79,Dropout_Enrolled
1,1,1,9853,1,1,124,1,Higher,Secondary,121.6,0,0,0,1,0,0,18,0,6,9,5,12.333333,0,0,6,10,5,10.6,0,15.5,2.8,-4.06,Dropout_Enrolled
1,43,1,9130,1,1,120,1,Higher,Higher,120,1,0,0,0,1,0,22,0,6,0,0,0,0,0,4,6,0,0,2,10.8,1.4,1.74,Dropout_Enrolled
1,39,1,9991,0,1,120,1,Basic,Basic,147.8,0,0,0,1,0,0,40,0,5,9,4,11.25,0,0,5,6,5,12,0,13.9,-0.3,0.79,Dropout_Enrolled
1,1,1,9130,1,1,148,1,Secondary,Secondary,141.7,0,0,0,0,1,0,18,0,6,8,5,11.6,0,0,6,11,4,13,0,8.9,1.4,3.51,Dropout_Enrolled
1,39,1,9238,1,19,133.1,1,Basic,Basic,139,0,0,1,0,1,0,33,0,6,8,0,0,0,0,5,6,0,0,0,16.2,0.3,-0.92,Dropout_Enrolled
1,39,1,8014,0,39,110,1,Basic,Basic,127.5,0,0,1,0,0,0,26,0,6,13,4,12,0,0,6,7,5,13.2,0,16.2,0.3,-0.92,Dropout_Enrolled
1,17,3,9085,1,1,117,1,Basic,Basic,111.1,0,0,0,1,0,0,21,0,6,0,0,0,0,0,6,0,0,0,0,15.5,2.8,-4.06,Dropout_Enrolled
1,53,1,9085,1,42,140,1,Secondary,Secondary,140,1,0,1,1,0,0,21,7,9,10,8,13.25,0,4,9,14,5,12.2,0,8.9,1.4,3.51,Dropout_Enrolled
1,44,1,9238,1,39,130,1,Secondary,Basic,127.4,0,0,1,0,1,0,27,3,6,8,5,11.6,0,2,6,9,5,12,0,13.9,-0.3,0.79,Dropout_Enrolled
1,17,3,9254,1,1,122,1,Secondary,Secondary,126.6,0,0,0,0,0,0,18,0,5,5,5,10.4,0,0,6,13,0,0,0,10.8,1.4,1.74,Dropout_Enrolled
1,17,2,9147,1,1,133,1,Basic,Secondary,120.1,1,0,0,1,0,1,18,0,5,15,2,10,0,0,5,14,2,12,0,13.9,-0.3,0.79,Dropout_Enrolled
1,1,1,9130,1,1,137,1,Higher,Basic,130.7,1,0,0,1,0,0,18,0,6,8,5,14.4,0,0,6,11,4,14.6,0,8.9,1.4,3.51,Dropout_Enrolled
1,17,1,9670,1,1,124,1,Basic,Basic,114.2,1,0,1,1,0,0,18,0,6,6,5,11.8,0,0,6,9,4,13.714286,0,10.8,1.4,1.74,Dropout_Enrolled
1,44,3,9085,1,39,150,1,Secondary,Basic,150,1,0,0,1,0,0,19,0,5,10,1,13,1,0,5,8,3,15.333333,0,12.7,3.7,-1.7,Dropout_Enrolled
1,17,4,9119,1,1,138,1,Secondary,Higher,127.5,1,0,0,1,1,0,19,0,5,6,5,14.6,0,0,5,5,5,15.2,0,8.9,1.4,3.51,Dropout_Enrolled
1,1,3,9500,1,1,131,1,Basic,Higher,126.1,1,0,0,1,0,0,18,0,7,8,7,12.59125,0,0,8,11,7,12.82,0,15.5,2.8,-4.06,Dropout_Enrolled
1,43,1,9147,1,1,131,1,Higher,Basic,126.1,0,0,0,1,0,0,18,0,5,5,0,0,0,0,5,9,4,13.25,2,16.2,0.3,-0.92,Dropout_Enrolled
1,1,1,9500,1,1,154,1,Basic,Basic,149.5,1,0,0,1,0,1,30,0,7,8,7,14.9125,0,0,8,9,1,13.5,0,13.9,-0.3,0.79,Dropout_Enrolled
1,43,3,9254,1,1,135,1,Higher,Higher,122.1,0,0,0,1,1,0,19,0,6,14,3,12.5,0,0,6,9,4,11,0,12.7,3.7,-1.7,Dropout_Enrolled
1,43,1,9085,1,1,110,1,Higher,Basic,105,0,0,1,0,1,0,34,2,6,13,3,11.333333,0,0,6,8,2,11.5,0,13.9,-0.3,0.79,Dropout_Enrolled
1,1,1,9853,1,1,125,1,Basic,Basic,114.9,1,0,1,0,0,0,21,0,6,8,3,13.666667,0,0,6,7,3,10.666667,0,15.5,2.8,-4.06,Dropout_Enrolled
1,39,1,9119,1,1,130,1,Basic,Basic,134,0,0,0,1,1,1,24,0,5,8,5,11.833333,0,0,5,8,4,14,0,12.7,3.7,-1.7,Dropout_Enrolled
1,39,1,9500,1,1,133.1,1,Secondary,Secondary,100.8,0,0,0,1,1,0,24,0,7,18,0,0,0,0,7,7,0,0,0,13.9,-0.3,0.79,Dropout_Enrolled
1,1,3,9773,1,1,142,1,Unknown,Secondary,136.1,1,0,0,0,1,0,19,0,4,8,0,0,1,0,6,0,0,0,0,9.4,-0.8,-3.12,Dropout_Enrolled
1,17,5,9254,1,1,130,1,Basic,Basic,122.7,1,0,1,1,1,1,20,0,6,7,0,0,0,0,6,6,0,0,0,8.9,1.4,3.51,Dropout_Enrolled
1,1,6,9500,1,1,122,1,Secondary,Secondary,119.6,1,0,0,1,0,0,21,0,7,8,6,13.25,0,0,8,8,8,13.8375,0,13.9,-0.3,0.79,Dropout_Enrolled
1,7,1,9238,1,3,130,1,Secondary,Secondary,125.1,0,0,1,0,0,0,27,0,6,8,0,0,0,0,5,6,0,0,0,16.2,0.3,-0.92,Dropout_Enrolled
2,39,1,9773,1,19,133.1,1,Basic,Basic,131,0,0,1,0,1,0,42,0,4,5,0,0,0,0,4,4,0,0,0,13.9,-0.3,0.79,Dropout_Enrolled
2,43,1,8014,0,1,120,1,Basic,Basic,161.1,0,0,0,1,1,0,47,0,6,9,6,12.142857,0,0,6,6,0,0,0,16.2,0.3,-0.92,Dropout_Enrolled
1,7,1,9500,1,3,120,1,Secondary,Secondary,120,1,0,0,0,1,0,23,0,7,0,0,0,0,0,8,0,0,0,0,12.7,3.7,-1.7,Dropout_Enrolled
1,39,1,9991,0,1,133.1,1,Basic,Basic,154.4,0,0,0,1,1,0,27,0,5,0,0,0,0,0,5,0,0,0,0,10.8,1.4,1.74,Dropout_Enrolled
1,43,4,9085,1,1,133.1,1,Unknown,Unknown,125.2,0,0,0,1,0,0,21,0,6,0,0,0,0,0,6,0,0,0,0,7.6,2.6,0.32,Dropout_Enrolled
1,43,1,9085,1,1,170,1,Basic,Basic,170,1,0,0,1,0,0,19,0,5,5,0,0,5,0,5,7,4,14.75,1,12.7,3.7,-1.7,Dropout_Enrolled
2,39,1,9556,1,1,100,1,Basic,Basic,120,0,0,0,1,0,0,47,1,7,16,6,12.514286,0,0,7,15,4,11.75,0,12.7,3.7,-1.7,Dropout_Enrolled
1,1,3,9238,1,1,133.1,1,Secondary,Secondary,100,1,0,0,1,1,0,22,0,6,6,4,11.25,0,0,6,7,3,11,0,8.9,1.4,3.51,Dropout_Enrolled
2,7,1,9991,0,3,140,1,Unknown,Unknown,140,1,0,0,0,1,0,33,0,5,5,0,0,0,0,5,5,0,0,0,7.6,2.6,0.32,Dropout_Enrolled
1,43,1,9773,1,1,121,1,Secondary,Secondary,121,1,0,0,1,1,0,23,0,6,15,1,13,0,0,6,8,4,11.25,0,9.4,-0.8,-3.12,Dropout_Enrolled
1,43,1,9130,1,1,120,6,Secondary,Higher,120,0,0,1,1,0,0,21,2,5,9,5,13.2,2,0,5,7,2,12.5,2,10.8,1.4,1.74,Dropout_Enrolled
1,43,1,9500,1,1,120,1,Higher,Higher,136.6,0,0,0,1,1,0,23,0,7,14,5,11.94,0,0,7,14,6,12.2,0,13.9,-0.3,0.79,Dropout_Enrolled
1,39,1,9500,1,1,140,1,Basic,Basic,135.5,0,0,0,1,0,0,32,0,7,0,0,0,0,0,8,0,0,0,0,13.9,-0.3,0.79,Dropout_Enrolled
1,18,1,9119,1,1,146,1,Secondary,Basic,132.4,1,0,0,1,1,0,18,0,5,5,1,16,0,0,5,5,0,0,0,9.4,-0.8,-3.12,Dropout_Enrolled
1,1,1,9773,1,1,116,1,Basic,Basic,114.3,1,0,0,1,0,0,20,0,4,8,0,0,0,0,4,8,0,0,0,7.6,2.6,0.32,Dropout_Enrolled
1,17,1,9130,1,1,143,1,Higher,Higher,131.8,1,0,1,0,0,0,18,0,6,9,5,12.4,0,0,6,12,5,14.166667,0,8.9,1.4,3.51,Dropout_Enrolled
1,1,1,9147,1,1,123,1,Secondary,Basic,117.8,0,0,0,1,1,0,20,0,5,9,5,12,0,0,5,9,4,13,0,8.9,1.4,3.51,Dropout_Enrolled
1,15,1,9556,1,1,137,26,Basic,Secondary,137,0,0,1,1,0,0,19,0,7,11,0,0,4,0,7,11,2,11.666667,0,8.9,1.4,3.51,Dropout_Enrolled
1,17,4,9773,1,1,137,1,Secondary,Secondary,125.8,0,0,1,1,1,0,20,0,6,7,5,12.2,0,0,6,6,6,12.333333,0,12.7,3.7,-1.7,Dropout_Enrolled
2,39,2,9147,1,1,133.1,1,Basic,Basic,110,0,0,0,1,1,0,43,0,5,14,0,0,1,0,5,5,0,0,0,9.4,-0.8,-3.12,Dropout_Enrolled
1,43,1,8014,0,1,113,1,Basic,Basic,128.2,0,0,0,0,0,0,41,0,6,6,0,0,6,0,6,12,0,0,0,9.4,-0.8,-3.12,Dropout_Enrolled
1,39,1,9085,1,1,110,1,Secondary,Secondary,160,1,0,1,1,0,0,30,0,6,7,6,16.428571,0,0,6,7,6,16.666667,0,13.9,-0.3,0.79,Dropout_Enrolled
1,1,2,9773,1,1,122,1,Basic,Basic,126.9,1,0,0,1,0,1,19,0,6,11,4,11,0,0,6,11,3,11.666667,0,9.4,-0.8,-3.12,Dropout_Enrolled
1,1,4,9119,1,1,111,1,Basic,Basic,107.5,1,0,0,1,1,1,22,0,5,9,3,12.333333,0,0,6,14,3,12.5,0,11.1,0.6,2.02,Dropout_Enrolled
1,53,1,9085,1,42,130,1,Basic,Secondary,130,1,0,1,0,0,0,24,7,9,9,8,13.125,0,4,9,13,6,13,0,8.9,1.4,3.51,Dropout_Enrolled
1,43,1,9238,1,1,125,1,Basic,Basic,117,1,0,0,1,0,0,21,0,6,13,3,12,0,0,6,12,2,11.333333,0,16.2,0.3,-0.92,Dropout_Enrolled
1,17,1,9147,1,1,115,1,Basic,Basic,112.9,1,0,0,0,1,0,19,0,5,7,2,12.5,0,0,5,13,1,11,0,9.4,-0.8,-3.12,Dropout_Enrolled
1,1,2,9085,1,1,118,1,Secondary,Basic,112.4,1,0,0,1,1,0,21,0,5,7,4,11.5,0,0,5,15,3,10.6,4,10.8,1.4,1.74,Dropout_Enrolled
2,39,1,9991,0,1,130,1,Basic,Basic,145.6,0,0,0,1,1,0,34,0,5,10,4,11.75,0,0,5,10,4,10.833333,0,13.9,-0.3,0.79,Dropout_Enrolled
1,17,1,9254,1,1,120,1,Basic,Basic,125.5,0,0,0,1,1,0,18,0,5,6,5,12,0,0,5,8,3,11.333333,0,12.7,3.7,-1.7,Dropout_Enrolled
1,1,1,9853,1,1,133.1,1,Basic,Basic,95,1,0,1,0,0,0,22,0,7,10,6,11.5,0,0,7,8,6,13.166667,0,11.1,0.6,2.02,Dropout_Enrolled
1,1,5,9147,1,1,122,1,Basic,Basic,117.5,1,0,1,0,0,0,22,0,5,12,2,11.5,0,0,5,12,0,0,0,12.7,3.7,-1.7,Dropout_Enrolled
1,1,3,9147,1,1,131,1,Basic,Basic,132.4,1,0,0,1,0,0,19,0,5,5,5,11.8,0,0,5,8,4,11.25,0,9.4,-0.8,-3.12,Dropout_Enrolled
1,18,2,9853,1,1,120,1,Basic,Basic,113.7,1,0,1,0,0,0,19,0,7,11,5,12.2,0,0,7,13,0,0,0,12.4,0.5,1.79,Dropout_Enrolled
1,1,1,9085,1,1,101,1,Basic,Basic,101,1,0,1,1,0,0,22,0,6,9,5,13.333333,0,0,6,17,4,11.4,0,12.4,0.5,1.79,Dropout_Enrolled
2,18,2,9238,1,1,140,1,Basic,Basic,120.4,0,0,1,0,0,0,39,0,6,0,0,0,0,0,6,0,0,0,0,9.4,-0.8,-3.12,Dropout_Enrolled
1,1,1,9070,1,1,148,1,Secondary,Secondary,141.4,0,0,0,1,1,0,19,0,6,0,0,0,0,0,6,0,0,0,0,15.5,2.8,-4.06,Dropout_Enrolled
1,1,6,9500,1,1,129,1,Basic,Basic,127.8,1,0,0,1,0,0,19,0,8,10,6,13.78,1,0,8,10,6,13.78,1,9.4,-0.8,-3.12,Dropout_Enrolled
1,17,1,9085,1,1,130,1,Basic,Secondary,101.3,1,0,0,1,1,0,20,0,6,12,4,12.8,0,0,6,17,0,0,0,12.4,0.5,1.79,Dropout_Enrolled
2,42,1,9147,1,1,100,1,Basic,Basic,100,1,0,0,1,0,0,54,13,15,20,13,12.461538,1,10,13,13,10,11.1,1,15.5,2.8,-4.06,Dropout_Enrolled
1,1,2,9085,1,1,156,1,Higher,Higher,150.9,1,0,0,1,0,0,18,0,6,8,6,16,0,0,6,10,6,14.625,0,11.1,0.6,2.02,Dropout_Enrolled
2,39,1,9991,0,1,120,1,Basic,Basic,119.9,0,0,0,1,0,0,50,0,5,9,2,10.5,0,0,5,7,3,11,0,12.7,3.7,-1.7,Dropout_Enrolled
1,1,2,9773,1,1,128,1,Unknown,Basic,141,1,0,0,0,0,0,20,0,6,10,4,12,0,0,6,15,3,10.666667,0,7.6,2.6,0.32,Dropout_Enrolled
1,1,1,9130,1,1,144,1,Higher,Secondary,137.7,0,0,0,0,0,0,23,0,5,9,0,0,3,1,5,10,1,12,3,10.8,1.4,1.74,Dropout_Enrolled
1,39,1,9085,1,19,133.1,1,Basic,Basic,104,0,0,0,1,0,0,26,0,5,11,1,12,1,0,5,12,0,0,4,10.8,1.4,1.74,Dropout_Enrolled
1,39,1,9070,1,1,140,1,Basic,Basic,118,0,0,1,1,1,1,45,0,6,6,6,13.5,0,0,6,6,0,0,0,16.2,0.3,-0.92,Dropout_Enrolled
1,17,3,9085,1,1,134,1,Basic,Basic,120.4,1,0,0,1,0,0,20,0,5,13,3,11.333333,2,0,5,8,5,12.6,0,9.4,-0.8,-3.12,Dropout_Enrolled
1,44,1,9119,1,39,150,1,Basic,Basic,150,1,0,1,1,1,0,20,0,5,6,5,16.5,0,0,5,7,5,17.714286,0,12.4,0.5,1.79,Dropout_Enrolled
1,1,1,9773,1,1,127,1,Higher,Higher,122.8,1,0,0,1,1,0,20,0,6,7,6,12.166667,0,0,6,9,3,12,0,12.4,0.5,1.79,Dropout_Enrolled
1,1,1,9238,1,1,107,1,Basic,Basic,103.5,1,0,0,1,0,0,20,0,6,13,3,11.2,0,0,6,9,4,12,0,16.2,0.3,-0.92,Dropout_Enrolled
1,43,1,8014,0,1,130,1,Basic,Higher,100,0,0,0,1,1,0,54,9,13,14,13,13.307692,0,7,11,12,11,12.818182,0,12.7,3.7,-1.7,Dropout_Enrolled
1,1,1,9773,1,1,127,1,Basic,Basic,123.2,1,0,0,1,0,0,18,0,6,12,1,11,0,0,6,12,0,0,0,9.4,-0.8,-3.12,Dropout_Enrolled
1,39,1,9119,1,1,150,1,Higher,Higher,150,1,0,0,1,1,0,27,0,5,10,1,14,0,0,5,0,0,0,0,8.9,1.4,3.51,Dropout_Enrolled
1,43,1,9070,1,1,125,1,Basic,Basic,131.7,1,0,0,1,1,0,20,3,6,6,4,12.75,0,3,9,12,3,12.666667,0,12.4,0.5,1.79,Dropout_Enrolled
4,39,2,9147,1,19,133.1,1,Basic,Basic,116.4,0,0,1,0,1,0,70,0,5,5,0,0,0,0,5,9,0,0,0,10.8,1.4,1.74,Dropout_Enrolled
1,1,2,9773,1,1,144,1,Higher,Higher,140.2,1,0,0,1,0,0,20,0,6,0,0,0,0,0,6,0,0,0,0,16.2,0.3,-0.92,Dropout_Enrolled
1,44,1,9085,1,39,110,1,Higher,Higher,110,0,0,0,1,1,0,23,0,6,19,0,0,0,0,6,6,0,0,0,13.9,-0.3,0.79,Dropout_Enrolled
1,44,1,9130,1,39,150,1,Secondary,Secondary,150,1,0,0,1,0,0,20,0,5,7,4,12,1,0,5,6,4,12.4,0,10.8,1.4,1.74,Dropout_Enrolled
1,39,1,9500,1,1,100,1,Higher,Secondary,121.3,1,0,0,1,0,0,34,0,8,11,7,11.705714,0,0,8,11,7,11.705714,0,10.8,1.4,1.74,Dropout_Enrolled
1,39,1,9254,1,9,133.1,1,Unknown,Unknown,110,1,0,0,0,0,0,28,0,5,10,0,0,0,0,5,10,0,0,0,7.6,2.6,0.32,Dropout_Enrolled
1,42,1,9147,1,1,139,1,Higher,Basic,112.3,1,0,0,1,0,0,19,0,5,8,2,11.5,0,0,5,10,3,10.857143,0,10.8,1.4,1.74,Dropout_Enrolled
1,1,4,9500,1,1,115,1,Higher,Higher,111.5,1,0,1,0,0,0,19,0,7,10,4,11.96,0,0,7,7,0,0,0,13.9,-0.3,0.79,Dropout_Enrolled
1,1,1,9773,1,1,134,1,Basic,Basic,141.4,1,0,0,1,0,0,19,0,6,12,3,13,0,0,6,13,2,14,0,9.4,-0.8,-3.12,Dropout_Enrolled
1,1,1,9773,1,1,120,1,Basic,Basic,114.8,1,1,0,1,0,0,19,0,6,11,4,12.25,0,0,6,11,3,11,0,7.6,2.6,0.32,Dropout_Enrolled
4,43,1,9500,1,1,130,1,Basic,Basic,103.7,0,0,0,1,0,0,38,1,8,12,5,13.126,1,1,8,12,5,13.126,1,10.8,1.4,1.74,Dropout_Enrolled
1,51,1,9991,0,39,120,1,Secondary,Higher,118.1,0,0,0,1,1,0,28,13,15,17,13,12,0,9,13,13,9,11.333333,0,8.9,1.4,3.51,Dropout_Enrolled
1,39,1,9119,1,1,110,1,Basic,Basic,108.4,1,0,0,1,0,0,34,0,5,5,0,0,0,0,5,6,0,0,0,10.8,1.4,1.74,Dropout_Enrolled
1,1,4,9500,1,1,137,1,Secondary,Basic,126.7,1,0,0,1,0,0,18,0,7,0,0,0,0,0,8,0,0,0,0,15.5,2.8,-4.06,Dropout_Enrolled
1,17,1,9147,1,1,145,1,Basic,Basic,132.1,1,0,0,1,1,0,21,0,5,10,1,10,0,0,5,5,0,0,0,11.1,0.6,2.02,Dropout_Enrolled
1,15,1,9556,1,1,114,26,Higher,Basic,114,0,0,0,1,0,0,20,0,7,14,0,0,6,0,7,12,2,11.666667,0,8.9,1.4,3.51,Dropout_Enrolled
1,43,1,9556,1,1,140,1,Basic,Basic,128,1,0,0,0,0,0,32,0,7,7,0,0,7,0,8,8,0,0,7,10.8,1.4,1.74,Dropout_Enrolled
1,7,1,9500,1,3,130,1,Basic,Basic,130,0,0,0,1,0,0,36,0,7,7,0,0,7,0,7,7,0,0,7,16.2,0.3,-0.92,Dropout_Enrolled
1,39,1,171,1,1,147,1,Basic,Basic,133.3,0,0,0,0,0,0,32,0,0,0,0,0,0,0,0,0,0,0,0,16.2,0.3,-0.92,Dropout_Enrolled
1,42,1,9853,1,12,133.1,1,Secondary,Higher,133.7,0,0,0,1,0,0,28,14,18,23,14,12.785714,2,16,17,18,16,13.875,0,16.2,0.3,-0.92,Dropout_Enrolled
1,39,1,9238,1,9,133.1,1,Unknown,Unknown,118,0,0,0,1,0,0,47,0,6,12,0,0,0,0,5,10,0,0,0,7.6,2.6,0.32,Dropout_Enrolled
4,39,1,9670,1,19,133.1,1,Basic,Basic,130,0,0,1,1,1,1,29,0,6,16,1,14,0,0,6,7,0,0,0,11.1,0.6,2.02,Dropout_Enrolled
2,43,3,9991,0,1,120,1,Basic,Basic,128.2,1,0,0,1,1,0,32,0,5,5,0,0,0,0,5,5,0,0,0,7.6,2.6,0.32,Dropout_Enrolled
1,1,2,9147,1,1,128,1,Higher,Secondary,121,1,1,1,1,1,0,20,0,5,6,5,13.2,0,0,5,10,5,11.4,3,16.2,0.3,-0.92,Dropout_Enrolled
1,17,1,9773,1,1,144,1,Basic,Basic,130.7,1,0,0,1,0,0,20,0,6,9,6,11.666667,0,0,6,8,5,11.6,0,7.6,2.6,0.32,Dropout_Enrolled
1,7,2,9130,1,3,140,1,Unknown,Unknown,140,0,0,0,1,0,0,25,0,5,9,0,0,4,0,5,9,0,0,3,10.8,1.4,1.74,Dropout_Enrolled
1,18,1,9147,1,1,131,1,Unknown,Unknown,131,0,0,0,1,1,0,22,0,5,11,3,13.666667,0,0,5,10,3,11.333333,0,9.4,-0.8,-3.12,Dropout_Enrolled
1,43,1,9119,1,1,128,1,Secondary,Basic,100,0,0,0,1,1,0,19,0,5,8,5,12,0,0,5,12,2,10.5,0,13.9,-0.3,0.79,Dropout_Enrolled
1,42,1,9070,1,1,100,1,Higher,Higher,115.9,0,0,0,1,0,0,29,9,10,15,9,11.555556,0,7,11,17,10,11.9,0,9.4,-0.8,-3.12,Dropout_Enrolled
2,39,2,9556,1,1,133.1,105,Secondary,Higher,152.8,1,0,0,1,0,0,28,0,7,9,7,12.428571,0,0,8,8,8,12.3,0,12.4,0.5,1.79,Dropout_Enrolled
1,17,3,9119,1,1,120,1,Secondary,Basic,116.9,1,0,1,0,1,0,18,0,5,10,3,12,0,0,5,8,3,10.333333,0,8.9,1.4,3.51,Dropout_Enrolled
1,7,1,9500,1,3,130,1,Basic,Basic,130,1,0,0,1,1,0,30,0,8,8,0,0,8,0,8,8,0,0,8,9.4,-0.8,-3.12,Dropout_Enrolled
1,39,1,8014,0,1,100,1,Basic,Basic,100,0,0,0,1,0,0,34,0,6,0,0,0,0,0,6,0,0,0,0,12.7,3.7,-1.7,Dropout_Enrolled
1,42,1,9147,1,1,130,1,Basic,Basic,130,1,0,0,1,0,0,26,3,5,5,4,13,0,1,5,7,2,12,0,9.4,-0.8,-3.12,Dropout_Enrolled
1,17,5,9773,1,1,122,1,Basic,Basic,123.1,1,0,0,0,0,0,19,0,6,12,3,11,0,0,6,12,3,12,0,9.4,-0.8,-3.12,Dropout_Enrolled
1,17,2,9119,1,1,116,1,Basic,Secondary,112.2,0,0,0,1,1,0,19,0,5,0,0,0,0,0,5,0,0,0,0,16.2,0.3,-0.92,Dropout_Enrolled
1,39,1,9254,1,1,133.1,1,Secondary,Secondary,105,1,0,1,0,0,0,24,0,6,14,6,11.285714,0,0,6,16,3,10.333333,0,8.9,1.4,3.51,Dropout_Enrolled
1,43,1,9670,1,1,160,1,Unknown,Unknown,100.1,0,0,0,0,1,0,35,6,10,10,7,12.142857,0,4,9,9,4,12.25,0,7.6,2.6,0.32,Dropout_Enrolled
2,39,1,8014,0,1,130,1,Basic,Basic,113.5,1,0,0,1,0,0,36,0,6,0,0,0,0,0,6,0,0,0,0,9.4,-0.8,-3.12,Dropout_Enrolled
2,39,1,9991,0,19,133.1,1,Basic,Secondary,138.3,0,0,0,1,1,0,44,0,5,9,3,11.333333,0,0,5,8,5,11.142857,0,13.9,-0.3,0.79,Dropout_Enrolled
1,43,1,9147,1,1,142,1,Basic,Basic,115,0,0,0,1,0,0,19,0,5,11,5,11.5,0,0,5,9,2,10.666667,0,13.9,-0.3,0.79,Dropout_Enrolled
1,39,1,8014,0,1,133.1,1,Unknown,Higher,118.5,1,0,0,1,0,0,31,0,6,12,0,0,0,0,6,0,0,0,0,7.6,2.6,0.32,Dropout_Enrolled
1,1,1,9119,1,1,140,1,Basic,Basic,166,1,0,1,1,1,0,20,0,5,7,0,0,0,0,5,5,0,0,0,9.4,-0.8,-3.12,Dropout_Enrolled
1,1,2,171,1,1,129,1,Basic,Basic,122,1,0,0,0,1,0,22,0,0,0,0,0,0,0,0,0,0,0,0,7.6,2.6,0.32,Dropout_Enrolled
1,26,1,9147,1,2,133.1,1,Unknown,Unknown,121.5,1,0,0,1,0,0,31,13,15,17,13,11.615385,0,11,14,14,11,12.545455,0,7.6,2.6,0.32,Dropout_Enrolled
1,17,1,9670,1,1,141,1,Secondary,Basic,128.8,1,0,0,1,0,0,19,0,6,6,6,14.833333,0,0,6,8,6,13.285714,0,8.9,1.4,3.51,Dropout_Enrolled
1,43,3,9254,1,1,110,1,Basic,Basic,107.2,1,0,0,1,1,0,19,1,6,16,2,10.5,0,0,6,15,4,10,0,7.6,2.6,0.32,Dropout_Enrolled
1,1,1,9119,1,1,129,1,Secondary,Secondary,124.1,1,0,0,1,1,0,19,0,5,10,0,0,0,0,5,10,1,14,3,7.6,2.6,0.32,Dropout_Enrolled
1,1,2,9070,1,1,128,1,Basic,Basic,123.5,1,1,0,0,1,0,19,0,6,9,4,12.5,0,0,6,6,0,0,0,9.4,-0.8,-3.12,Dropout_Enrolled
1,44,1,9119,1,1,130,1,Basic,Secondary,129.4,1,0,1,0,1,0,23,0,5,6,0,0,0,0,5,7,0,0,0,13.9,-0.3,0.79,Dropout_Enrolled
1,1,1,9085,1,1,127,1,Basic,Basic,122.8,1,0,0,1,0,0,19,0,5,10,2,14.5,1,0,5,9,3,11.333333,0,12.7,3.7,-1.7,Dropout_Enrolled
1,17,1,9238,1,1,103,1,Basic,Basic,104.1,0,0,0,1,0,0,20,0,6,6,0,0,0,0,5,5,0,0,0,8.9,1.4,3.51,Dropout_Enrolled
4,42,1,9147,1,1,110,1,Basic,Basic,128.2,0,0,0,1,0,0,41,8,14,24,11,12.25,3,5,10,12,10,13.4,0,9.4,-0.8,-3.12,Graduate
1,17,4,9670,1,1,120,1,Secondary,Basic,117.2,1,0,0,1,0,0,18,0,6,8,6,11.875,0,0,6,11,4,14.6,0,11.1,0.6,2.02,Graduate
1,17,2,9147,1,1,122,1,Basic,Basic,116.1,1,0,0,1,0,1,19,0,5,8,5,11.2,0,0,5,5,3,11,0,12.4,0.5,1.79,Graduate
1,39,1,9003,1,1,140,1,Higher,Higher,110,0,0,0,1,1,0,31,0,6,8,6,15.125,0,0,6,10,6,14.6,0,16.2,0.3,-0.92,Graduate
1,1,1,9500,1,1,141,1,Basic,Basic,136.3,1,0,0,1,1,1,18,0,7,7,6,13.516667,0,0,7,7,6,13.516667,0,7.6,2.6,0.32,Graduate
1,42,1,9500,1,1,150,1,Basic,Secondary,110,1,0,0,1,1,1,33,6,14,20,14,13.072857,6,6,14,20,14,13.072857,6,9.4,-0.8,-3.12,Graduate
1,44,1,9238,1,39,140,1,Secondary,Secondary,135.7,1,0,0,1,0,0,20,3,6,6,6,12.833333,0,2,6,6,6,13.833333,0,12.4,0.5,1.79,Graduate
1,17,2,9556,1,1,136,1,Secondary,Secondary,128.3,0,0,0,1,0,1,18,0,7,7,7,13.428571,0,0,8,8,8,14.75,0,15.5,2.8,-4.06,Graduate
1,1,1,9500,1,1,145,1,Basic,Basic,136.6,0,0,0,1,0,1,19,0,7,12,6,13.766667,0,0,8,10,7,14.051429,0,15.5,2.8,-4.06,Graduate
1,17,2,9500,1,1,145,1,Basic,Basic,130.5,1,0,0,1,0,0,18,0,8,8,7,14.24,0,0,8,8,7,14.24,0,10.8,1.4,1.74,Graduate
1,39,1,9991,0,3,130,1,Basic,Basic,146.2,0,0,0,1,0,0,28,10,14,16,11,11.272727,0,6,11,16,10,12,0,10.8,1.4,1.74,Graduate
1,1,1,9500,1,1,142,1,Basic,Basic,133,1,0,0,1,0,1,19,0,8,8,8,14.11,0,0,8,8,8,14.11,0,9.4,-0.8,-3.12,Graduate
1,17,1,9773,1,1,121,1,Basic,Basic,120.4,1,0,0,1,0,1,18,0,6,6,6,12.833333,0,0,6,7,6,12.285714,0,15.5,2.8,-4.06,Graduate
1,1,4,9773,1,1,136,1,Secondary,Secondary,121.7,1,0,0,1,0,1,22,0,6,7,5,13.2,0,0,6,7,5,13.6,0,12.4,0.5,1.79,Graduate
1,17,2,9254,1,1,123,1,Basic,Basic,113.9,1,0,0,1,0,0,18,0,6,6,6,13.166667,0,0,6,6,6,12.666667,0,11.1,0.6,2.02,Graduate
1,1,1,9670,1,1,133.1,1,Secondary,Secondary,103,1,0,0,1,0,1,20,0,6,8,4,11.75,0,0,6,10,6,12.666667,0,10.8,1.4,1.74,Graduate
1,17,2,9556,1,1,122,1,Basic,Basic,118.3,1,0,0,1,0,1,19,0,7,7,7,11.971429,0,0,8,8,8,14.4375,0,15.5,2.8,-4.06,Graduate
1,17,1,9670,1,1,133.1,1,Secondary,Basic,140,1,0,0,1,0,0,22,0,6,6,6,15.166667,0,0,6,6,6,16,0,13.9,-0.3,0.79,Graduate
1,53,1,9085,1,42,170,1,Secondary,Basic,170,0,0,0,1,0,0,20,7,11,13,11,15.692308,0,4,9,9,9,15.555556,0,8.9,1.4,3.51,Graduate
1,39,1,9991,0,19,133.1,1,Basic,Basic,142.7,0,0,1,1,1,1,34,0,5,11,5,14.714286,0,0,5,14,5,14.375,5,16.2,0.3,-0.92,Graduate
1,1,1,171,1,1,149,1,Higher,Higher,151.1,1,0,0,1,1,0,19,0,0,0,0,0,0,0,0,0,0,0,0,9.4,-0.8,-3.12,Graduate
1,1,2,171,1,1,117,1,Secondary,Basic,121.6,1,0,0,1,0,0,22,6,12,12,12,12.916667,0,4,11,16,11,14.5,0,8.9,1.4,3.51,Graduate
1,1,4,9500,1,1,141,1,Basic,Basic,132.5,1,0,0,1,0,1,18,0,8,8,8,13.39125,0,0,8,8,8,13.39125,0,9.4,-0.8,-3.12,Graduate
1,1,6,9853,1,1,136,1,Secondary,Basic,122,0,0,0,1,0,0,18,0,6,6,6,12.666667,0,0,6,6,6,12,0,7.6,2.6,0.32,Graduate
2,1,4,9853,1,1,134,1,Basic,Basic,122.5,0,1,0,1,0,1,19,0,6,6,6,13.333333,0,0,6,6,6,14.5,0,10.8,1.4,1.74,Graduate
1,1,2,9853,1,1,134,1,Secondary,Basic,122.5,1,0,0,1,0,1,19,0,6,7,6,14,0,0,6,6,6,15,0,15.5,2.8,-4.06,Graduate
1,1,3,9500,1,1,134,1,Basic,Basic,120.3,1,0,0,1,0,1,18,0,8,8,7,12.082857,0,0,8,8,7,12.082857,0,10.8,1.4,1.74,Graduate
5,39,1,9254,1,1,133.1,1,Higher,Higher,103,0,0,0,1,0,0,62,0,6,7,6,15,0,0,6,10,6,12.833333,0,10.8,1.4,1.74,Graduate
1,1,1,9238,1,1,127,1,Basic,Basic,125.3,0,0,0,1,1,0,19,0,6,9,5,10.8,0,0,6,11,5,11,0,7.6,2.6,0.32,Graduate
1,1,1,9070,1,1,139,1,Secondary,Basic,134.9,1,0,0,1,1,0,20,0,6,7,6,13.666667,0,0,6,7,6,12.166667,1,16.2,0.3,-0.92,Graduate
1,1,2,9500,1,1,137,1,Secondary,Higher,124.6,0,0,0,1,0,0,18,0,7,10,7,13.398,0,0,8,8,8,13.5425,0,15.5,2.8,-4.06,Graduate
1,17,1,9238,1,1,143,1,Basic,Basic,126.2,1,0,0,1,0,1,21,0,6,7,6,13.333333,0,0,6,7,6,13.5,0,12.4,0.5,1.79,Graduate
1,17,1,9500,1,1,128,1,Basic,Basic,124.3,1,0,0,1,0,1,19,0,7,8,7,13.46875,0,0,8,8,8,13.31375,0,15.5,2.8,-4.06,Graduate
1,1,2,9238,1,1,136,1,Basic,Basic,121.7,1,0,0,1,0,1,21,0,6,9,5,12.333333,0,0,6,7,5,11.8,0,13.9,-0.3,0.79,Graduate
1,1,5,9238,1,3,135,1,Secondary,Basic,129.4,0,0,1,1,0,0,18,0,6,6,6,12.166667,0,0,6,6,6,12.333333,0,10.8,1.4,1.74,Graduate
1,1,1,171,1,1,115,1,Secondary,Secondary,134.3,1,0,0,1,1,0,25,16,17,19,17,11.611111,0,14,17,22,17,12.055556,0,12.4,0.5,1.79,Graduate
1,17,2,9773,1,1,125,1,Secondary,Secondary,115.6,1,0,0,1,0,0,19,0,6,6,6,13.333333,0,0,6,6,6,14.666667,0,12.4,0.5,1.79,Graduate
1,44,1,8014,0,39,130,1,Secondary,Basic,133.4,0,0,0,1,0,1,21,3,6,6,6,11.5,0,2,6,7,6,13.285714,0,12.4,0.5,1.79,Graduate
1,17,1,9238,1,1,125,1,Basic,Basic,114.9,0,0,0,1,0,1,19,0,6,13,6,11.5,0,0,6,9,5,12.2,0,11.1,0.6,2.02,Graduate
1,43,1,9238,1,1,130,1,Basic,Basic,118.4,0,0,1,1,0,0,28,15,16,16,13,12.076923,0,13,13,13,11,12.090909,0,16.2,0.3,-0.92,Graduate
1,1,5,9500,1,1,144,1,Basic,Basic,136,1,0,0,1,0,1,19,0,7,7,6,14.15,0,0,7,7,6,14.15,0,7.6,2.6,0.32,Graduate
2,1,5,9500,1,1,130,1,Secondary,Basic,122.3,0,0,0,1,0,0,19,0,7,7,6,14.35,0,0,7,7,6,14.35,0,7.6,2.6,0.32,Graduate
1,1,4,9500,1,1,140,1,Secondary,Secondary,131.6,1,0,0,1,0,0,18,0,7,8,7,13.135,0,0,8,9,8,13.244444,0,12.4,0.5,1.79,Graduate
1,1,3,9070,1,1,122,1,Basic,Basic,125.9,1,0,0,1,1,1,20,0,6,6,6,15.5,0,0,6,7,6,12.166667,0,12.4,0.5,1.79,Graduate
1,1,1,9773,1,1,160,1,Secondary,Basic,146.5,0,0,0,1,0,1,18,0,6,7,6,13.428571,0,0,6,10,6,13.5,0,13.9,-0.3,0.79,Graduate
1,44,1,171,1,39,140,1,Higher,Higher,140,0,0,1,1,1,0,20,0,0,0,0,0,0,0,0,0,0,0,0,15.5,2.8,-4.06,Graduate
1,39,1,9085,1,1,133.1,1,Basic,Basic,130,1,0,0,1,0,0,24,0,6,7,6,14.857143,0,0,6,10,5,13.6,0,13.9,-0.3,0.79,Graduate
1,1,1,9085,1,1,138,1,Basic,Basic,126.8,1,0,0,1,1,0,18,0,5,6,4,11.75,0,0,5,10,5,12.571429,1,10.8,1.4,1.74,Graduate
1,18,1,9853,1,1,132,1,Basic,Basic,126.1,0,0,0,1,0,1,18,0,7,9,6,12.333333,0,0,7,7,6,12.666667,0,11.1,0.6,2.02,Graduate
1,43,2,9500,1,6,119.1,1,Secondary,Basic,119.1,0,0,0,1,1,0,22,0,7,7,6,12.733333,0,0,7,7,6,12.733333,0,7.6,2.6,0.32,Graduate
1,53,1,9085,1,42,140,1,Basic,Basic,142.5,1,0,0,1,0,1,22,7,11,18,8,13.5,0,4,9,16,7,13.714286,0,8.9,1.4,3.51,Graduate
1,17,3,9238,1,1,143,1,Basic,Basic,126.9,1,0,0,1,0,0,18,0,6,14,5,11,0,0,6,6,6,11.666667,0,7.6,2.6,0.32,Graduate
1,1,1,9254,1,1,130,1,Basic,Basic,133.9,1,0,0,1,0,0,18,0,6,10,5,12.2,0,0,6,8,4,11.25,0,9.4,-0.8,-3.12,Graduate
1,1,1,9070,1,1,137,1,Basic,Basic,126.2,1,0,0,1,0,1,19,0,6,6,6,13,0,0,6,8,6,12.5,0,10.8,1.4,1.74,Graduate
1,1,1,9238,1,1,120,1,Basic,Basic,112.3,0,0,0,1,0,1,22,0,6,10,5,10.714286,0,0,6,10,5,12.2,0,12.7,3.7,-1.7,Graduate
1,1,1,9147,1,1,150,1,Basic,Basic,138.5,0,0,0,1,0,1,18,0,5,5,5,14,0,0,5,6,5,13.6,0,12.4,0.5,1.79,Graduate
1,1,4,9670,1,1,133,1,Secondary,Higher,121.1,1,0,0,1,0,0,18,0,6,7,6,13.666667,0,0,6,9,5,15.4,0,13.9,-0.3,0.79,Graduate
1,51,1,9500,1,1,127,1,Basic,Secondary,150,0,0,0,1,0,1,19,0,7,9,5,13.85,0,0,8,9,7,12.192857,0,11.1,0.6,2.02,Graduate
1,43,1,9991,0,1,120,1,Basic,Basic,141,0,0,0,1,1,1,32,5,10,12,10,13.8,0,5,10,10,10,12.8,0,10.8,1.4,1.74,Graduate
1,1,1,9773,1,1,130,1,Basic,Basic,133.9,0,0,0,1,1,1,19,0,6,8,5,14,0,0,6,8,6,13,0,10.8,1.4,1.74,Graduate
1,44,1,9003,1,39,160,1,Basic,Basic,160,1,0,0,1,0,0,21,0,6,11,6,13.428571,0,0,6,12,6,12.857143,0,15.5,2.8,-4.06,Graduate
1,17,2,9147,1,1,134,1,Basic,Basic,126.3,1,0,0,1,0,1,18,0,5,8,5,11.8,0,0,5,10,5,11.6,3,16.2,0.3,-0.92,Graduate
1,17,3,9556,1,1,131,1,Basic,Basic,128.5,0,0,0,1,0,1,18,0,7,9,7,12.855556,0,0,8,8,8,13.9125,0,12.7,3.7,-1.7,Graduate
5,43,1,9991,0,3,130,1,Higher,Higher,130,0,0,0,1,0,0,41,5,10,14,10,14.636364,0,5,10,13,10,14.6,0,16.2,0.3,-0.92,Graduate
1,17,1,9670,1,1,145,1,Higher,Higher,129.3,1,0,0,1,0,0,20,0,6,7,6,15.571429,0,0,6,6,6,17.166667,0,16.2,0.3,-0.92,Graduate
1,43,4,9147,1,1,124,1,Basic,Basic,117.4,0,0,0,1,0,0,19,3,10,15,5,11.8,0,4,10,14,8,12,0,7.6,2.6,0.32,Graduate
1,44,1,9003,1,39,120,1,Higher,Secondary,120,0,0,0,1,1,0,21,0,6,9,5,13.4,0,0,6,9,5,12.4,0,8.9,1.4,3.51,Graduate
1,44,1,9003,1,39,140,1,Basic,Basic,140,1,0,0,1,1,1,20,0,6,10,5,12.6,0,0,6,6,5,13.2,0,12.4,0.5,1.79,Graduate
1,1,3,9500,1,1,135,1,Secondary,Basic,120.5,1,0,0,1,0,0,19,0,8,11,7,13.258571,0,0,8,11,7,13.258571,0,10.8,1.4,1.74,Graduate
1,1,1,9130,1,1,133,1,Higher,Basic,125.7,1,0,0,1,1,1,18,0,6,7,6,13.5,0,0,6,8,6,12.5,0,12.4,0.5,1.79,Graduate
1,1,4,9500,1,1,136,1,Basic,Basic,123,1,0,0,1,0,0,19,0,8,8,7,14.328571,0,0,8,8,7,14.328571,0,10.8,1.4,1.74,Graduate
1,17,4,9500,1,1,133,1,Higher,Higher,130.7,1,0,0,1,0,0,19,0,7,7,7,14.757143,0,0,8,9,8,15.366667,0,12.4,0.5,1.79,Graduate
2,43,2,9147,1,1,133.1,1,Basic,Basic,109,1,0,0,1,0,0,46,4,9,18,8,11.375,2,0,5,11,5,11.8,0,9.4,-0.8,-3.12,Graduate
1,43,4,8014,0,1,116,1,Unknown,Unknown,116.2,0,0,0,1,1,0,21,9,11,11,11,12.454545,0,3,11,17,8,12.75,0,9.4,-0.8,-3.12,Graduate
1,1,2,9500,1,1,137,1,Basic,Basic,120.8,1,0,0,1,0,1,18,0,8,8,7,14.654286,0,0,8,8,7,14.654286,0,10.8,1.4,1.74,Graduate
1,1,2,9670,1,1,120,1,Higher,Basic,115.5,1,0,0,1,0,0,18,0,6,8,5,13,0,0,6,8,5,14,0,13.9,-0.3,0.79,Graduate
1,17,4,9070,1,1,148,1,Secondary,Higher,163.4,1,0,0,1,0,0,20,0,6,7,6,11.5,0,0,6,6,6,12,0,16.2,0.3,-0.92,Graduate
2,51,1,9991,0,1,127,1,Basic,Basic,100.1,0,0,0,1,0,0,31,1,5,5,5,14,0,0,5,5,5,13.8,0,8.9,1.4,3.51,Graduate
1,17,2,9773,1,1,122,1,Basic,Basic,119.6,1,0,0,1,0,0,20,0,6,8,6,13.428571,0,0,6,10,5,12.4,0,9.4,-0.8,-3.12,Graduate
1,39,1,9991,0,19,133.1,1,Basic,Basic,117.2,0,0,0,1,0,0,41,0,5,8,5,11,0,0,5,6,5,11.8,1,7.6,2.6,0.32,Graduate
1,1,1,9773,1,1,133.1,1,Higher,Basic,105,1,0,0,1,0,0,20,0,6,6,6,13.833333,0,0,6,6,6,12.5,0,12.7,3.7,-1.7,Graduate
1,1,1,9500,1,1,148,1,Basic,Basic,138.7,0,0,0,1,0,1,19,0,7,10,7,15.115,0,0,8,10,8,15.092,0,15.5,2.8,-4.06,Graduate
1,1,5,9085,1,1,124,1,Higher,Basic,113.9,1,0,0,1,0,0,19,0,6,12,5,15,0,0,6,9,6,13.428571,0,16.2,0.3,-0.92,Graduate
1,18,3,9085,1,1,149,103,Secondary,Secondary,132.2,1,0,0,1,0,1,18,0,5,9,4,12,0,0,5,8,5,13,0,10.8,1.4,1.74,Graduate
1,7,1,9500,1,3,130,1,Basic,Basic,130,1,0,0,1,0,0,27,0,8,8,7,14.414286,0,0,8,8,7,14.414286,0,12.7,3.7,-1.7,Graduate
1,1,1,9773,1,1,128,1,Secondary,Basic,118.2,0,0,0,1,0,0,19,0,6,6,6,11.666667,0,0,6,6,6,11.5,0,12.7,3.7,-1.7,Graduate
1,1,1,9238,1,1,133,1,Basic,Basic,121.8,1,0,0,1,0,1,18,0,6,7,5,10.2,0,0,6,9,4,11.25,0,12.4,0.5,1.79,Graduate
1,1,1,9147,1,1,131,1,Higher,Basic,118.8,0,0,0,1,0,0,19,0,5,6,5,13.4,0,0,5,6,5,13,0,16.2,0.3,-0.92,Graduate
1,1,1,9085,1,1,128,1,Basic,Secondary,135.7,1,0,0,1,0,0,20,0,5,7,4,12.75,0,0,5,5,5,13.4,0,10.8,1.4,1.74,Graduate
1,1,1,9773,1,1,141,1,Basic,Basic,128.4,1,0,0,1,0,0,18,0,6,6,6,15.5,0,0,6,6,6,14,0,11.1,0.6,2.02,Graduate
1,17,1,9254,1,1,125,1,Secondary,Secondary,114.5,0,0,0,1,1,1,22,0,6,8,6,13.625,0,0,6,8,6,14.428571,0,11.1,0.6,2.02,Graduate
1,1,3,9500,1,1,108,1,Basic,Secondary,107.8,1,0,0,1,0,1,20,0,7,10,6,12.357143,0,0,8,9,7,13,0,13.9,-0.3,0.79,Graduate
1,1,1,9500,1,1,143,1,Secondary,Basic,128,0,0,0,1,0,1,18,0,7,9,7,13.055556,0,0,8,8,8,15.8125,0,13.9,-0.3,0.79,Graduate
1,18,2,9500,1,1,129,1,Basic,Basic,119,1,0,0,1,0,1,19,0,8,8,7,12.342857,0,0,8,8,7,12.342857,0,10.8,1.4,1.74,Graduate
1,17,3,9500,1,1,133,1,Secondary,Secondary,128.5,1,0,0,1,0,1,18,0,7,7,7,14.868571,0,0,8,9,8,15.111111,0,11.1,0.6,2.02,Graduate
1,1,2,9773,1,1,159,1,Secondary,Basic,151.3,1,0,0,1,0,0,18,0,6,6,6,14,0,0,6,6,6,14.666667,0,10.8,1.4,1.74,Graduate
1,7,1,9500,1,3,140,1,Basic,Basic,140,0,0,0,1,0,0,25,0,8,8,7,14.805714,0,0,8,8,7,14.805714,0,10.8,1.4,1.74,Graduate
1,42,1,9238,1,1,133.1,1,Secondary,Basic,134,0,0,0,1,0,0,21,10,13,21,11,13.272727,0,6,11,13,9,13,0,7.6,2.6,0.32,Graduate
1,17,2,171,1,1,146,1,Higher,Higher,155.1,1,0,0,1,0,0,18,0,0,0,0,0,0,0,0,0,0,0,0,13.9,-0.3,0.79,Graduate
1,17,2,9070,1,1,126,1,Basic,Basic,129.9,1,0,0,1,1,1,19,0,6,6,6,13.666667,0,0,6,7,5,13.2,0,12.4,0.5,1.79,Graduate
1,1,1,9238,1,1,137,1,Higher,Secondary,128.6,0,0,0,1,0,1,18,0,6,7,6,13.166667,0,0,6,6,6,12.5,0,12.4,0.5,1.79,Graduate
1,1,6,9500,1,1,140,1,Basic,Basic,133.3,1,0,0,1,0,1,17,0,8,8,8,13.41625,0,0,8,8,8,13.41625,0,9.4,-0.8,-3.12,Graduate
1,1,3,9070,1,1,118,1,Higher,Higher,110,1,0,1,1,1,0,19,0,6,6,6,12,0,0,6,7,6,13.571429,0,8.9,1.4,3.51,Graduate
1,1,1,9500,1,1,149,1,Basic,Basic,139.5,0,0,0,1,1,1,18,0,8,8,8,15.3,0,0,8,8,8,15.3,0,9.4,-0.8,-3.12,Graduate
1,17,2,9773,1,1,132,1,Basic,Basic,120.1,1,0,0,1,0,1,18,0,6,6,6,13.666667,0,0,6,6,6,14,0,8.9,1.4,3.51,Graduate
4,39,1,9238,1,1,120,1,Basic,Basic,125.5,1,0,0,1,0,1,39,0,6,7,6,14,0,0,6,7,5,14.8,0,12.7,3.7,-1.7,Graduate
1,1,1,9085,1,1,143,1,Basic,Basic,133.4,1,0,0,1,0,0,19,0,6,7,6,16,0,0,6,8,6,15.875,0,12.4,0.5,1.79,Graduate
1,39,1,8014,0,1,133.1,1,Basic,Basic,97,0,0,0,1,0,1,35,0,6,8,6,10.833333,0,0,6,7,6,11.5,0,10.8,1.4,1.74,Graduate
1,17,3,9238,1,1,133.1,1,Higher,Secondary,117,1,0,0,1,0,0,21,0,6,8,6,12.666667,0,0,6,7,6,12.428571,0,11.1,0.6,2.02,Graduate
1,1,1,9773,1,1,135,1,Secondary,Basic,129.4,1,0,0,1,0,0,18,0,6,6,6,12.833333,0,0,6,7,6,12.166667,0,11.1,0.6,2.02,Graduate
1,17,1,9238,1,1,135,1,Secondary,Basic,129.1,0,0,0,1,0,0,19,0,6,6,6,14.666667,0,0,6,7,6,14.571429,0,15.5,2.8,-4.06,Graduate
1,43,1,9003,1,1,125,1,Secondary,Basic,125,1,0,0,1,0,0,21,9,14,23,9,12,2,6,12,21,8,11.25,0,15.5,2.8,-4.06,Graduate
1,1,1,9853,1,1,145,1,Basic,Basic,146.8,0,0,0,1,0,0,18,0,6,6,6,13.166667,0,0,6,6,6,13.333333,0,7.6,2.6,0.32,Graduate
1,1,1,9147,1,1,135,1,Basic,Secondary,122.1,1,0,0,1,0,0,20,0,5,6,5,12,0,0,5,6,5,12.333333,0,16.2,0.3,-0.92,Graduate
1,1,1,9500,1,1,132,1,Basic,Secondary,123.4,0,0,0,1,0,1,18,0,7,7,7,14.604286,0,0,8,9,8,15.683333,0,11.1,0.6,2.02,Graduate
1,1,2,9500,1,1,99,1,Secondary,Higher,100,1,0,0,1,1,0,19,0,7,9,7,11.975,0,0,8,9,7,13.128571,0,13.9,-0.3,0.79,Graduate
1,18,1,9773,1,1,124,1,Basic,Basic,126.8,0,0,0,1,1,1,21,0,6,8,5,13.833333,0,0,6,6,4,14,0,13.9,-0.3,0.79,Graduate
1,1,1,9238,1,1,141,1,Basic,Secondary,132.6,0,0,0,1,0,1,18,0,6,7,6,13.285714,0,0,6,6,6,14.333333,0,12.4,0.5,1.79,Graduate
1,17,3,9147,1,1,142,1,Basic,Basic,129.4,0,0,0,1,0,0,18,0,5,5,5,13.2,0,0,5,6,4,12.5,0,9.4,-0.8,-3.12,Graduate
1,44,1,9003,1,39,160,1,Basic,Basic,160,0,0,0,1,0,1,19,0,6,7,6,15.333333,0,0,6,9,6,14,0,15.5,2.8,-4.06,Graduate
1,17,3,9147,1,1,135,1,Basic,Basic,121,1,0,0,1,1,1,18,0,5,8,5,12.75,0,0,5,7,5,11.5,0,13.9,-0.3,0.79,Graduate
2,1,4,9500,1,1,143,1,Basic,Basic,128.7,1,0,0,1,0,0,18,0,7,10,7,14.455,0,0,8,8,8,13.91,0,15.5,2.8,-4.06,Graduate
1,1,2,9773,1,1,140,1,Secondary,Secondary,136.9,1,0,0,1,0,1,19,0,6,7,6,13.5,0,0,6,7,6,14.428571,0,16.2,0.3,-0.92,Graduate
1,17,2,9500,1,1,134,1,Basic,Basic,133.5,1,0,0,1,0,0,19,0,7,8,7,14.05,0,0,8,8,8,15.1,0,13.9,-0.3,0.79,Graduate
2,1,2,8014,0,1,110,1,Basic,Secondary,108.7,1,0,0,1,0,0,43,0,6,6,6,13,0,0,6,6,6,12.5,0,9.4,-0.8,-3.12,Graduate
1,17,4,9500,1,1,136,1,Secondary,Secondary,128.5,1,0,0,1,0,0,18,0,7,7,6,12.766667,0,0,7,7,6,12.766667,0,7.6,2.6,0.32,Graduate
1,17,4,9147,1,1,122,1,Basic,Basic,116.4,1,0,1,1,0,1,18,0,5,5,5,11.6,0,0,5,5,5,11.8,0,11.1,0.6,2.02,Graduate
2,39,1,9130,1,1,130,1,Secondary,Basic,154,1,0,0,1,1,0,37,1,5,12,3,12,2,1,5,8,4,13,1,10.8,1.4,1.74,Graduate
1,1,2,9500,1,1,136,1,Basic,Basic,140,1,0,0,1,0,0,20,0,7,7,6,13.966667,0,0,7,7,6,13.966667,0,7.6,2.6,0.32,Graduate
1,18,6,9500,1,1,141,1,Secondary,Basic,126.7,1,0,0,1,0,1,18,0,8,8,7,14.314286,0,0,8,8,7,14.314286,0,12.7,3.7,-1.7,Graduate
2,1,4,9500,1,1,140,1,Secondary,Basic,128,0,0,0,1,0,1,18,0,7,7,6,14.066667,0,0,7,7,6,14.066667,0,7.6,2.6,0.32,Graduate
1,42,1,9500,1,1,122,1,Higher,Higher,122,1,0,0,1,0,0,20,0,8,11,6,12.491667,0,0,8,11,6,12.491667,0,12.7,3.7,-1.7,Graduate
1,1,1,9238,1,1,147,1,Secondary,Basic,137.2,0,0,0,0,0,0,18,0,6,6,6,14.5,0,0,6,6,6,15.166667,0,10.8,1.4,1.74,Graduate
1,17,6,9500,1,1,126,1,Basic,Basic,119.4,1,0,0,1,0,1,19,0,7,7,7,13.371429,0,0,8,9,8,13.666667,0,16.2,0.3,-0.92,Graduate
1,51,1,8014,0,2,110,1,Basic,Basic,110,0,0,0,1,1,0,42,8,12,12,11,14.454545,0,7,11,11,10,14.2,0,11.1,0.6,2.02,Graduate
1,17,5,9500,1,1,144,1,Basic,Secondary,141,1,0,0,1,0,1,19,0,8,8,7,12.485714,0,0,8,8,7,12.485714,0,12.7,3.7,-1.7,Graduate
2,39,1,9556,1,19,133.1,1,Basic,Basic,123,0,0,0,1,0,0,31,0,7,13,6,11.833333,0,0,7,8,7,12.228571,0,12.4,0.5,1.79,Graduate
1,1,1,9147,1,1,160,1,Secondary,Basic,151.3,0,0,0,1,0,0,23,0,5,8,3,10.666667,0,0,5,8,5,11.6,0,7.6,2.6,0.32,Graduate
1,17,1,9670,1,1,125,1,Basic,Basic,126.4,0,0,0,1,1,1,18,0,6,7,6,12.285714,0,0,6,7,6,13.333333,1,16.2,0.3,-0.92,Graduate
1,1,2,9773,1,1,140,1,Basic,Basic,126.4,1,0,0,1,1,1,18,0,6,8,6,12.666667,0,0,6,6,6,13.5,0,12.7,3.7,-1.7,Graduate
1,1,1,9085,1,1,124,1,Higher,Secondary,117.4,1,0,0,1,0,0,19,0,5,7,4,12.75,0,0,5,5,5,12,0,10.8,1.4,1.74,Graduate
1,53,1,9254,1,42,110,1,Secondary,Secondary,111.8,1,0,0,1,0,1,21,0,6,7,6,10.571429,0,0,6,8,5,11,0,8.9,1.4,3.51,Graduate
1,39,1,9147,1,1,150,1,Basic,Secondary,148.8,0,0,0,1,1,1,25,0,5,7,4,14.25,0,0,5,7,4,14.75,0,12.7,3.7,-1.7,Graduate
1,39,1,8014,0,1,133.1,1,Basic,Basic,112.5,0,0,0,1,0,1,30,0,7,7,6,14.666667,1,0,6,7,6,14.333333,0,10.8,1.4,1.74,Graduate
1,1,1,9238,1,1,135,1,Basic,Basic,136.1,1,0,0,1,0,1,18,0,6,6,6,14,0,0,6,6,6,13.666667,0,12.4,0.5,1.79,Graduate
2,1,1,8014,0,1,150,1,Secondary,Basic,139.9,1,0,0,1,0,0,24,0,6,9,5,13,0,0,6,6,6,14.166667,0,9.4,-0.8,-3.12,Graduate
1,51,1,171,1,1,128,1,Higher,Secondary,131.2,1,0,0,1,1,0,21,6,12,12,12,13.666667,0,4,11,16,11,13,0,8.9,1.4,3.51,Graduate
1,1,2,9670,1,1,123,1,Basic,Secondary,117.8,1,0,0,1,0,0,18,0,6,6,6,13.833333,0,0,6,11,6,14.555556,0,10.8,1.4,1.74,Graduate
1,1,1,9147,1,1,146,1,Higher,Secondary,144.6,0,0,0,1,1,0,18,0,5,5,5,13,0,0,5,6,5,13.333333,0,16.2,0.3,-0.92,Graduate
1,17,6,9500,1,1,132,1,Secondary,Basic,128,1,0,0,1,0,0,19,0,7,7,7,13.467143,0,0,8,9,8,15.011111,0,12.4,0.5,1.79,Graduate
1,1,1,9500,1,1,130,1,Higher,Higher,118.8,0,0,0,1,0,0,18,0,7,7,7,13.677143,0,0,8,9,8,14.533333,0,11.1,0.6,2.02,Graduate
1,17,2,9085,1,1,166,1,Secondary,Basic,158.7,0,0,0,1,0,0,18,0,6,7,6,14.857143,0,0,6,7,6,14,0,11.1,0.6,2.02,Graduate
1,43,1,9070,1,1,134,1,Basic,Basic,132.7,1,0,0,1,1,0,22,9,13,13,13,14,0,7,12,13,12,13,0,15.5,2.8,-4.06,Graduate
1,43,1,9773,1,1,126,1,Secondary,Basic,110,0,0,1,1,0,0,20,0,6,7,6,13.333333,0,0,6,8,6,12.666667,0,12.4,0.5,1.79,Graduate
1,1,3,9070,1,1,132,1,Secondary,Higher,126.1,1,0,0,1,0,1,18,0,6,6,6,15.833333,0,0,6,6,6,15.333333,0,11.1,0.6,2.02,Graduate
1,1,4,171,1,1,146,1,Secondary,Secondary,151.3,1,0,0,1,0,1,19,6,12,12,12,12.75,0,4,11,16,11,13.25,0,8.9,1.4,3.51,Graduate
1,17,3,9500,1,1,143,1,Higher,Higher,129,1,0,0,1,1,0,19,0,7,8,7,13.3625,0,0,8,9,8,14.444444,0,13.9,-0.3,0.79,Graduate
1,1,1,9500,1,1,147,1,Basic,Basic,147.3,0,0,0,1,0,0,18,0,7,7,6,13.966667,0,0,7,7,6,13.966667,0,7.6,2.6,0.32,Graduate
1,1,1,9238,1,1,124,1,Secondary,Secondary,118.8,0,0,0,1,1,0,19,0,6,12,4,12.25,0,0,6,9,6,11,0,9.4,-0.8,-3.12,Graduate
1,17,1,9254,1,1,122,1,Secondary,Basic,130.4,1,0,0,1,0,0,18,0,6,10,5,11.8,0,0,6,10,5,12.2,0,11.1,0.6,2.02,Graduate
1,1,1,9147,1,1,158,1,Secondary,Basic,155.2,0,0,0,1,1,1,18,0,5,5,5,11.8,0,0,5,8,3,11,0,9.4,-0.8,-3.12,Graduate
1,1,3,9130,1,1,167,1,Basic,Basic,159.3,0,0,0,1,0,0,19,0,5,7,5,14.714286,0,0,5,5,5,15.8,0,7.6,2.6,0.32,Graduate
1,1,1,9147,1,1,160,1,Basic,Basic,159.3,0,0,0,1,0,0,18,0,5,5,5,14.4,0,0,5,5,5,15.4,0,7.6,2.6,0.32,Graduate
1,17,3,9500,1,1,136,1,Basic,Basic,126,1,0,0,1,0,0,19,0,8,8,7,15.11,0,0,8,8,7,15.11,0,10.8,1.4,1.74,Graduate
1,1,1,9670,1,1,140,1,Basic,Basic,131.3,1,0,0,1,0,1,18,0,6,6,6,13.5,0,0,6,9,6,13.666667,0,10.8,1.4,1.74,Graduate
1,17,1,8014,0,1,141,1,Unknown,Unknown,136.1,0,0,0,1,0,0,24,0,6,7,6,12.833333,0,0,6,8,6,12,0,7.6,2.6,0.32,Graduate
1,17,3,9238,1,1,121,1,Secondary,Secondary,117.2,0,0,0,1,0,0,19,0,6,11,5,11.2,0,0,6,13,5,11.6,0,15.5,2.8,-4.06,Graduate
1,1,1,171,1,1,136,1,Basic,Basic,150.4,1,0,0,1,1,1,21,0,0,0,0,0,0,0,0,0,0,0,0,12.4,0.5,1.79,Graduate
1,1,1,9130,1,1,133,1,Higher,Secondary,126,0,0,0,1,1,0,18,0,5,7,3,13.666667,0,0,5,5,5,13.2,0,7.6,2.6,0.32,Graduate
1,1,1,9500,1,1,132,1,Basic,Basic,122,1,0,0,1,0,1,20,0,8,8,7,13.817143,0,0,8,8,7,13.817143,0,10.8,1.4,1.74,Graduate
1,1,3,9500,1,1,147,1,Basic,Basic,134.8,1,0,0,1,0,0,18,0,7,7,6,14.016667,0,0,7,7,6,14.016667,0,7.6,2.6,0.32,Graduate
1,39,1,9556,1,1,140,1,Basic,Basic,105,1,0,0,1,0,1,36,0,7,11,6,12.35,0,0,7,12,5,12.5,0,8.9,1.4,3.51,Graduate
1,39,1,9254,1,1,130,1,Basic,Basic,113.5,0,0,0,1,0,1,24,0,6,6,6,13.666667,0,0,6,6,6,14.166667,0,12.4,0.5,1.79,Graduate
1,44,1,9085,1,39,160,1,Basic,Basic,160,1,0,0,1,0,0,20,1,6,7,6,14.166667,0,1,6,17,5,13.777778,0,12.4,0.5,1.79,Graduate
1,18,1,9556,1,1,140,1,Basic,Basic,122.8,0,0,0,1,0,1,19,0,7,11,7,12.625,0,0,8,11,8,12.5125,0,12.7,3.7,-1.7,Graduate
1,1,1,9238,1,1,154,1,Basic,Basic,140.4,0,0,0,1,0,1,22,0,6,6,5,12.6,0,0,6,6,6,13,0,10.8,1.4,1.74,Graduate
1,17,1,9500,1,1,145,1,Basic,Basic,136.8,1,0,0,1,0,0,18,0,8,9,8,14.3775,1,0,8,9,8,14.3775,1,9.4,-0.8,-3.12,Graduate
1,1,1,171,1,1,174,1,Higher,Higher,157.9,0,0,0,1,0,0,18,0,0,0,0,0,0,0,0,0,0,0,0,13.9,-0.3,0.79,Graduate
2,7,1,8014,0,3,130,1,Basic,Basic,130,0,0,0,1,0,0,32,8,14,18,13,12.846154,0,7,11,19,10,12.8,0,10.8,1.4,1.74,Graduate
1,1,5,9500,1,1,130,1,Basic,Secondary,122.1,1,0,0,1,0,1,19,0,7,8,7,11.678571,0,0,8,10,7,13.0375,0,12.4,0.5,1.79,Graduate
1,1,6,9500,1,1,136,1,Basic,Secondary,120.8,1,0,0,1,0,0,19,6,14,22,7,12.192308,5,6,14,22,7,12.192308,5,7.6,2.6,0.32,Graduate
1,17,1,9147,1,1,134,1,Basic,Basic,129.5,0,0,0,1,0,1,18,0,5,5,5,11.6,0,0,5,12,4,12.625,0,10.8,1.4,1.74,Graduate
1,7,1,9119,1,40,140,1,Higher,Secondary,140,0,0,0,1,1,0,23,0,5,5,5,13.8,0,0,5,7,5,14.142857,0,11.1,0.6,2.02,Graduate
1,1,1,9147,1,1,130,1,Basic,Basic,123,0,0,0,1,0,0,18,0,5,8,5,12.333333,2,0,5,7,5,11.4,0,15.5,2.8,-4.06,Graduate
1,17,1,9085,1,1,135,1,Secondary,Basic,125.6,1,0,0,1,0,0,18,0,5,8,4,11,1,0,5,8,3,14,0,12.7,3.7,-1.7,Graduate
1,17,1,9773,1,1,136,1,Higher,Secondary,132.5,1,0,0,1,0,0,19,0,6,7,6,12.5,0,0,6,7,6,12.5,0,10.8,1.4,1.74,Graduate
1,1,1,9238,1,1,163,1,Basic,Basic,155,0,0,0,1,0,1,21,0,6,6,6,13.333333,0,0,6,8,6,13.166667,0,9.4,-0.8,-3.12,Graduate
1,1,5,9254,1,1,128,1,Basic,Secondary,116.5,1,0,0,1,0,1,18,0,6,7,6,13.428571,0,0,6,6,6,12.666667,0,8.9,1.4,3.51,Graduate
1,1,4,9670,1,1,125,1,Higher,Basic,118,1,0,0,1,0,0,19,0,6,7,6,14.428571,0,0,6,8,6,15,2,16.2,0.3,-0.92,Graduate
1,1,1,8014,0,1,133,1,Basic,Basic,135.5,0,0,0,1,0,0,34,0,6,7,6,12.333333,0,0,6,6,6,11.666667,0,10.8,1.4,1.74,Graduate
1,17,6,9119,1,1,124,1,Basic,Basic,126.1,1,0,0,1,1,0,20,0,5,7,4,13,0,0,5,9,5,14.833333,3,7.6,2.6,0.32,Graduate
1,1,1,9070,1,1,144,1,Secondary,Secondary,127.2,1,0,0,1,0,1,20,0,6,6,6,12.666667,0,0,6,8,6,13,0,10.8,1.4,1.74,Graduate
1,1,4,9238,1,1,130,1,Secondary,Basic,124.8,1,0,0,1,0,0,19,0,6,6,6,13,0,0,6,8,5,13.4,0,8.9,1.4,3.51,Graduate
1,17,1,9130,1,1,147,1,Higher,Secondary,141.8,1,0,0,1,0,0,19,0,6,8,6,13,0,0,6,9,4,12.8,0,13.9,-0.3,0.79,Graduate
2,39,1,9085,1,1,120,1,Basic,Basic,150,0,0,0,1,1,0,43,0,5,8,5,13.5,2,0,5,5,5,14.4,0,9.4,-0.8,-3.12,Graduate
1,44,1,9003,1,39,160,1,Higher,Secondary,160,1,0,0,0,0,0,20,0,6,10,6,13.375,0,0,6,10,6,13,0,16.2,0.3,-0.92,Graduate
1,17,1,9003,1,1,125,1,Higher,Higher,100,0,0,0,1,1,0,27,16,18,19,18,12.222222,0,9,12,15,12,12.384615,0,15.5,2.8,-4.06,Graduate
2,39,1,8014,0,1,140,1,Basic,Basic,128.5,0,0,0,1,0,1,38,0,6,6,5,12.4,0,0,6,7,6,12.666667,0,9.4,-0.8,-3.12,Graduate
1,43,1,9070,1,1,135,1,Secondary,Basic,126.4,1,0,0,1,0,1,20,5,12,12,12,13.25,0,5,12,12,11,12.727273,0,15.5,2.8,-4.06,Graduate
1,1,1,9238,1,1,151,1,Basic,Secondary,138.4,1,0,0,1,0,1,20,0,6,8,6,14.25,0,0,6,8,6,11,0,12.7,3.7,-1.7,Graduate
1,42,1,8014,0,1,150,1,Basic,Higher,148,0,0,0,1,0,0,26,0,6,10,3,11.666667,0,0,6,8,5,12,0,9.4,-0.8,-3.12,Graduate
1,17,3,9238,1,1,141,1,Basic,Basic,125.6,1,0,0,1,0,1,19,0,6,8,6,11.333333,0,0,6,6,6,11.833333,0,8.9,1.4,3.51,Graduate
5,39,1,9238,1,1,130,1,Basic,Basic,146,0,0,0,1,1,0,34,0,6,8,5,12.6,0,0,6,11,4,11.25,0,12.4,0.5,1.79,Graduate
2,39,1,9991,0,1,133.1,1,Basic,Basic,168,0,0,0,1,1,0,29,0,5,5,5,15.2,0,0,5,5,5,15.2,0,11.1,0.6,2.02,Graduate
1,17,3,9500,1,1,139,1,Basic,Secondary,131.8,1,0,0,1,0,0,18,0,8,8,7,14.652857,0,0,8,8,7,14.652857,0,10.8,1.4,1.74,Graduate
1,1,1,9238,1,1,142,1,Basic,Basic,136.1,1,0,0,1,0,0,18,0,6,8,6,13.857143,0,0,6,6,6,15,0,13.9,-0.3,0.79,Graduate
1,42,1,9670,1,1,130,1,Secondary,Secondary,116.3,1,0,0,1,0,1,20,3,7,10,6,12.833333,0,2,8,8,5,11.8,0,12.7,3.7,-1.7,Graduate
1,17,5,9556,1,1,139,1,Basic,Basic,121.3,1,0,0,1,0,1,19,0,7,8,7,13.385714,0,0,8,8,8,13.3875,0,10.8,1.4,1.74,Graduate
1,1,1,9670,1,1,123,1,Basic,Basic,125.5,0,0,0,0,0,1,19,0,6,6,6,13.833333,0,0,6,7,6,14.285714,0,8.9,1.4,3.51,Graduate
1,1,1,9238,1,1,107,1,Higher,Secondary,104.2,1,0,0,1,0,0,20,0,6,6,6,12.166667,0,0,6,7,6,12.142857,0,11.1,0.6,2.02,Graduate
1,17,1,9238,1,1,144,1,Higher,Secondary,126.9,0,0,0,1,0,0,19,0,6,8,5,10.6,0,0,6,11,4,10.5,0,15.5,2.8,-4.06,Graduate
1,17,1,9147,1,1,137,1,Secondary,Higher,131.1,1,0,1,1,0,1,19,0,5,7,5,13.6,0,0,5,5,5,12.6,0,8.9,1.4,3.51,Graduate
2,43,1,9003,1,1,133.1,1,Basic,Basic,136,0,0,0,1,1,0,41,18,19,19,19,12.684211,0,12,13,13,13,12.384615,0,15.5,2.8,-4.06,Graduate
1,1,1,9238,1,1,142,1,Unknown,Basic,127.3,0,0,0,1,0,1,18,0,6,12,4,11,0,0,6,9,6,11.5,0,9.4,-0.8,-3.12,Graduate
1,1,1,9238,1,1,133.1,1,Secondary,Secondary,112,0,0,0,1,1,0,19,0,6,7,6,12.166667,0,0,6,6,6,12.166667,0,12.4,0.5,1.79,Graduate
1,1,5,9119,1,1,135,1,Basic,Basic,122.1,1,0,0,1,1,0,20,0,5,10,3,10.666667,0,0,5,5,4,12.25,0,7.6,2.6,0.32,Graduate
1,1,3,9500,1,1,141,1,Basic,Basic,126,1,0,0,1,0,0,18,0,8,8,7,15.657143,0,0,8,8,7,15.657143,0,12.7,3.7,-1.7,Graduate
1,17,1,8014,0,1,125,1,Basic,Basic,122.2,1,0,1,1,0,0,19,0,6,6,6,12.166667,0,0,6,7,6,11.666667,0,10.8,1.4,1.74,Graduate
1,17,1,9070,1,1,132,1,Basic,Basic,138,0,0,0,1,1,1,18,0,6,6,6,13.666667,0,0,6,6,6,12,0,12.4,0.5,1.79,Graduate
1,1,1,9238,1,1,105,1,Basic,Basic,106.1,1,0,0,1,0,0,20,0,6,6,6,11.5,0,0,6,7,6,13.285714,0,11.1,0.6,2.02,Graduate
1,1,1,9238,1,1,164,1,Basic,Basic,149,1,0,0,1,0,1,23,0,6,7,6,13.857143,0,0,6,6,6,14.166667,0,10.8,1.4,1.74,Graduate
1,1,2,9500,1,1,97,1,Secondary,Basic,98.1,1,0,0,1,0,0,21,0,7,7,7,12.835714,0,0,8,8,8,14.23125,0,11.1,0.6,2.02,Graduate
4,43,1,9238,1,1,120,1,Basic,Basic,110,0,0,1,1,0,0,34,0,6,13,4,11.25,0,0,6,8,4,13.75,0,13.9,-0.3,0.79,Graduate
1,18,1,9500,1,1,143,1,Basic,Basic,116.5,1,0,0,1,0,1,20,0,7,10,7,12.625,0,0,8,8,8,13.0625,0,15.5,2.8,-4.06,Graduate
1,1,1,9147,1,1,151,1,Secondary,Basic,137,1,0,0,1,1,0,18,0,5,5,5,13.4,0,0,5,5,5,15,0,8.9,1.4,3.51,Graduate
1,1,5,9500,1,1,145,1,Basic,Basic,125.5,1,0,0,1,0,1,18,0,8,8,8,13.76375,0,0,8,8,8,13.76375,0,9.4,-0.8,-3.12,Graduate
1,17,1,9147,1,1,127,1,Secondary,Basic,121.1,1,0,0,1,1,1,20,0,5,11,4,12,0,0,5,5,5,12.8,0,11.1,0.6,2.02,Graduate
1,1,1,9500,1,1,127,1,Higher,Basic,121.5,0,0,0,1,1,0,23,0,7,7,6,13.483333,0,0,7,7,6,13.483333,0,7.6,2.6,0.32,Graduate
1,18,3,9070,1,1,164,1,Secondary,Secondary,161.2,1,0,0,1,0,0,18,1,6,8,6,13.714286,1,0,6,8,6,14.375,0,13.9,-0.3,0.79,Graduate
1,1,1,9500,1,1,129,1,Secondary,Secondary,120,0,0,0,1,1,0,20,0,8,8,7,15.028571,0,0,8,8,7,15.028571,0,12.7,3.7,-1.7,Graduate
1,1,3,9500,1,1,153,6,Basic,Basic,131.8,1,0,0,1,0,0,18,0,7,7,6,14.716667,0,0,7,7,6,14.716667,0,7.6,2.6,0.32,Graduate
2,1,1,9500,1,1,142,1,Basic,Basic,130.3,0,0,0,1,0,0,18,0,7,7,6,13.683333,0,0,7,7,6,13.683333,0,7.6,2.6,0.32,Graduate
1,17,1,9238,1,1,116,1,Basic,Basic,111.1,1,0,0,1,0,1,18,0,6,9,6,11.333333,0,0,6,9,6,11.833333,0,8.9,1.4,3.51,Graduate
1,1,1,9147,1,1,130,1,Secondary,Basic,123,0,0,0,1,0,1,18,0,5,7,5,13.333333,0,0,5,6,5,13.6,0,12.7,3.7,-1.7,Graduate
1,1,3,9500,1,1,128,1,Secondary,Secondary,118.9,1,0,0,1,0,0,20,0,7,8,7,11.5875,0,0,8,9,7,14.071429,0,13.9,-0.3,0.79,Graduate
1,43,5,9238,1,1,101,24,Basic,Basic,119.9,1,0,1,0,0,0,22,5,11,16,9,10.888889,0,2,10,20,4,11.25,1,9.4,-0.8,-3.12,Graduate
1,1,1,9238,1,1,139,1,Basic,Basic,126.1,0,0,0,1,0,1,19,0,6,7,5,12.333333,0,0,6,7,6,12.833333,0,12.7,3.7,-1.7,Graduate
1,43,1,9853,1,1,130,1,Higher,Secondary,124.6,0,0,0,1,1,0,37,19,21,21,21,12.47619,0,13,19,19,19,12.210526,0,12.4,0.5,1.79,Graduate
1,17,6,9556,1,1,118,1,Basic,Basic,117.8,1,0,0,1,0,1,19,0,7,11,6,12.4,0,0,7,8,6,12.8,0,11.1,0.6,2.02,Graduate
1,51,1,9670,1,1,126,1,Higher,Higher,111,0,0,1,1,1,0,21,5,11,12,10,12.1,0,2,8,9,8,13.333333,0,11.1,0.6,2.02,Graduate
1,1,5,9500,1,1,141,1,Basic,Basic,126.3,1,0,0,1,0,0,20,0,8,12,7,12.471429,0,0,8,12,7,12.471429,0,12.7,3.7,-1.7,Graduate
1,7,1,9773,1,43,140,1,Basic,Secondary,140,0,0,0,1,1,0,25,0,6,6,6,14.666667,0,0,6,6,6,13.5,0,11.1,0.6,2.02,Graduate
2,39,1,8014,0,1,140,1,Basic,Basic,121,0,0,0,1,0,0,50,0,6,8,6,12.666667,0,0,6,6,6,11.833333,0,10.8,1.4,1.74,Graduate
1,17,4,9773,1,1,121,1,Secondary,Basic,120.3,1,0,1,1,1,1,19,0,6,6,6,13.666667,0,0,6,6,6,13.333333,0,8.9,1.4,3.51,Graduate
1,1,1,9130,1,1,125,1,Higher,Higher,132.4,0,0,0,1,1,0,20,0,5,7,4,11.75,0,0,5,5,5,13.4,0,7.6,2.6,0.32,Graduate
1,44,1,9238,1,39,130,1,Basic,Basic,126.7,0,0,1,1,0,0,21,3,6,6,6,12.166667,0,2,6,7,6,11.714286,0,13.9,-0.3,0.79,Graduate
1,43,6,9238,1,1,129,1,Unknown,Unknown,125.2,0,0,0,1,0,1,23,15,16,18,16,13,0,11,13,15,13,13.266667,0,9.4,-0.8,-3.12,Graduate
2,39,1,171,1,12,110,1,Basic,Basic,106,1,0,0,1,1,0,36,0,0,0,0,0,0,0,0,0,0,0,0,7.6,2.6,0.32,Graduate
1,17,3,9500,1,1,143,1,Basic,Secondary,133.8,1,0,0,1,0,0,18,0,7,7,6,13.033333,0,0,7,7,6,13.033333,0,7.6,2.6,0.32,Graduate
1,39,1,9003,1,1,130,1,Basic,Basic,140,0,0,0,1,0,0,26,6,12,13,6,13,0,4,12,14,11,13.833333,0,15.5,2.8,-4.06,Graduate
5,17,5,9500,1,1,143,1,Basic,Basic,133.5,1,0,0,1,0,1,18,0,8,8,7,12.114286,0,0,8,8,7,12.114286,0,12.7,3.7,-1.7,Graduate
2,39,1,9991,0,1,120,1,Basic,Higher,168.2,0,0,0,1,1,0,45,0,5,6,5,14,0,0,5,6,5,14.166667,0,12.4,0.5,1.79,Graduate
1,1,1,9773,1,1,142,1,Secondary,Basic,136.1,0,0,1,1,1,1,19,0,6,6,6,12.666667,0,0,6,6,6,14,0,16.2,0.3,-0.92,Graduate
1,1,1,9773,1,1,152,1,Basic,Basic,139.1,0,0,0,1,0,1,19,0,6,6,6,12.833333,0,0,6,6,6,13.5,0,16.2,0.3,-0.92,Graduate
1,1,2,9773,1,1,124,1,Higher,Higher,114.6,1,0,0,1,0,0,21,0,6,8,5,12.8,0,0,6,7,5,11.2,0,11.1,0.6,2.02,Graduate
1,1,1,9500,1,1,127,1,Basic,Basic,123.9,1,0,0,1,0,1,18,0,7,9,7,12.855556,0,0,8,12,7,12.761111,0,15.5,2.8,-4.06,Graduate
1,39,1,9500,1,1,130,1,Basic,Secondary,140,1,0,0,1,0,0,24,0,8,8,7,14.985714,0,0,8,8,7,14.985714,0,12.7,3.7,-1.7,Graduate
1,17,2,9238,1,1,132,1,Basic,Secondary,133.1,1,0,0,1,0,1,19,0,6,8,5,12.2,0,0,6,7,6,11.5,0,9.4,-0.8,-3.12,Graduate
1,17,1,9085,1,1,163,14,Basic,Basic,150.8,1,0,0,1,0,0,19,0,6,13,6,16,0,0,6,8,6,14.5,0,15.5,2.8,-4.06,Graduate
1,42,1,9500,1,1,124,1,Basic,Basic,124,0,0,0,1,0,0,23,0,8,8,8,12.88625,0,0,8,8,8,12.88625,0,9.4,-0.8,-3.12,Graduate
1,17,1,9147,1,1,118,1,Basic,Basic,122.2,0,0,0,1,0,0,19,0,5,11,3,10.666667,0,0,5,9,4,10.25,0,11.1,0.6,2.02,Graduate
1,43,1,8014,0,1,145.7,22,Basic,Basic,145.7,1,0,0,1,0,0,25,8,16,16,15,13.333333,0,11,13,13,11,12.272727,0,13.9,-0.3,0.79,Graduate
1,17,5,9670,1,1,132,1,Basic,Basic,134.1,1,0,0,1,1,0,21,0,6,6,6,15.166667,0,0,6,9,6,14,0,10.8,1.4,1.74,Graduate
1,1,4,9070,1,1,167,1,Secondary,Secondary,158.3,1,0,0,1,0,0,18,0,6,6,6,15.166667,0,0,6,6,6,14.166667,0,15.5,2.8,-4.06,Graduate
1,17,1,9119,1,1,148,1,Secondary,Basic,148.7,0,0,0,1,1,0,18,0,5,6,5,16.2,0,0,5,8,5,16,0,8.9,1.4,3.51,Graduate
1,17,1,9130,1,1,130,1,Secondary,Secondary,123.8,0,0,0,1,0,0,18,0,5,7,4,12,0,0,5,6,5,12,0,7.6,2.6,0.32,Graduate
1,1,1,9670,1,1,131,1,Secondary,Secondary,122.3,0,0,0,1,1,0,19,0,5,6,5,11.5,0,0,5,5,5,11.6,0,9.4,-0.8,-3.12,Graduate
1,17,1,171,1,1,158,1,Higher,Higher,151.4,1,0,0,0,0,0,19,6,12,12,12,13,0,4,11,14,11,13.25,0,8.9,1.4,3.51,Graduate
1,43,1,9773,1,1,123,1,Basic,Basic,134,0,0,0,1,0,1,20,0,6,6,6,13.666667,0,0,6,6,6,13.333333,0,12.4,0.5,1.79,Graduate
1,1,1,9500,1,1,132,1,Basic,Higher,126,1,0,0,1,0,0,19,0,7,7,6,12.183333,0,0,7,7,6,12.183333,0,7.6,2.6,0.32,Graduate
1,1,1,9254,1,1,132,1,Secondary,Basic,124.7,1,0,0,1,1,0,21,0,6,9,6,12,0,0,6,8,5,11.6,0,13.9,-0.3,0.79,Graduate
1,1,1,9500,1,1,134,1,Basic,Basic,121.2,0,0,0,1,0,0,19,0,7,10,7,13.47,0,0,8,8,8,13.32625,0,15.5,2.8,-4.06,Graduate
1,17,5,9147,1,1,131,1,Basic,Basic,119.8,1,0,0,1,0,0,19,0,5,8,5,12.6,0,0,5,9,4,11.6,0,8.9,1.4,3.51,Graduate
1,17,2,9147,1,1,125,1,Basic,Basic,116.3,1,0,0,1,1,0,19,0,5,8,5,13.25,0,0,5,8,5,11,0,13.9,-0.3,0.79,Graduate
1,39,1,9773,1,12,120,1,Secondary,Secondary,129.8,1,0,0,1,1,0,52,0,6,7,5,13,0,0,6,6,6,15,0,9.4,-0.8,-3.12,Graduate
1,1,4,9500,1,1,147,1,Secondary,Secondary,124.5,1,0,0,1,0,1,19,0,8,11,7,12.86,0,0,8,11,7,12.86,0,10.8,1.4,1.74,Graduate
1,7,0,9003,1,3,130,1,Secondary,Basic,130,1,0,0,1,0,0,23,10,17,28,17,13.15,2,8,12,22,12,13.214286,0,15.5,2.8,-4.06,Graduate
1,17,4,9085,1,1,123,1,Basic,Basic,124.4,1,0,0,1,0,0,19,0,6,14,6,15.666667,0,0,6,9,6,14.5,0,15.5,2.8,-4.06,Graduate
5,7,1,9500,1,40,150,1,Basic,Basic,150,0,0,0,1,0,0,29,1,8,11,7,13.742857,0,1,8,11,7,13.742857,0,12.7,3.7,-1.7,Graduate
1,1,1,9500,1,1,130,1,Basic,Basic,135,0,0,0,1,0,0,19,0,7,7,6,14.266667,0,0,7,7,6,14.266667,0,7.6,2.6,0.32,Graduate
1,1,1,9773,1,1,159,1,Unknown,Basic,160.1,1,0,0,1,0,0,18,0,6,6,6,15.166667,0,0,6,7,6,14.857143,0,7.6,2.6,0.32,Graduate
1,1,4,9254,1,1,131,1,Basic,Basic,124,1,0,0,1,0,1,18,0,6,7,6,11.333333,0,0,6,9,6,10.833333,0,9.4,-0.8,-3.12,Graduate
1,1,2,9773,1,1,122,1,Basic,Basic,130.8,1,0,0,1,0,0,18,0,6,14,4,11.25,0,0,6,9,5,13,0,9.4,-0.8,-3.12,Graduate
1,17,2,9500,1,1,135,1,Basic,Basic,133.4,1,0,0,1,0,0,19,0,7,7,7,14.125714,0,0,8,8,8,14.36875,0,11.1,0.6,2.02,Graduate
1,1,4,9500,1,1,117,1,Secondary,Secondary,109.3,1,0,0,1,0,1,18,0,7,7,7,13.117143,0,0,8,9,7,12.6,0,11.1,0.6,2.02,Graduate
1,17,1,9500,1,1,127,1,Basic,Basic,129.5,1,0,0,1,0,1,20,0,7,7,6,12.333333,0,0,7,7,6,12.333333,0,7.6,2.6,0.32,Graduate
1,51,1,9991,0,1,134,1,Secondary,Secondary,120.6,1,0,0,1,1,0,27,2,6,6,6,12.333333,0,0,5,5,5,13,0,11.1,0.6,2.02,Graduate
1,1,2,9085,1,1,151,1,Higher,Higher,144.5,1,0,0,1,0,0,18,0,6,7,6,15.666667,0,0,6,6,6,14.833333,0,8.9,1.4,3.51,Graduate
1,1,1,9130,1,1,151,1,Higher,Secondary,151,1,0,0,1,0,0,18,0,6,11,6,14.444444,0,0,6,6,6,13.333333,0,16.2,0.3,-0.92,Graduate
1,16,3,9773,1,1,138,1,Basic,Basic,134.2,1,0,0,1,0,1,20,0,6,6,6,15,0,0,6,6,6,13,0,11.1,0.6,2.02,Graduate
1,1,2,9070,1,1,126,1,Basic,Basic,132,1,0,0,1,0,1,19,0,6,6,6,14.166667,0,0,6,8,6,12.375,0,10.8,1.4,1.74,Graduate
1,1,1,9500,1,1,130,1,Secondary,Basic,129.1,1,0,0,1,0,0,18,0,7,9,7,13.044444,0,0,8,10,8,13.595,0,15.5,2.8,-4.06,Graduate
1,39,1,9500,1,1,100,1,Basic,Basic,160,1,0,0,1,0,1,24,0,8,15,6,12.415,0,0,8,15,6,12.415,0,10.8,1.4,1.74,Graduate
1,1,1,9254,1,1,117,1,Secondary,Secondary,116.3,1,0,0,1,1,1,21,0,6,6,6,11.666667,0,0,6,7,5,12.2,0,10.8,1.4,1.74,Graduate
1,1,1,9130,1,1,141,1,Secondary,Secondary,138.9,1,0,0,1,1,0,18,0,5,5,5,13.6,0,0,5,6,4,13.25,1,10.8,1.4,1.74,Graduate
1,17,1,9254,1,1,111,1,Basic,Basic,117.7,0,0,0,1,0,0,20,0,6,8,5,10.8,0,0,6,9,4,11.5,0,9.4,-0.8,-3.12,Graduate
1,1,2,9254,1,1,120,1,Basic,Basic,116.5,1,0,0,1,0,1,19,0,6,9,5,13.2,0,0,6,8,5,11,0,12.4,0.5,1.79,Graduate
2,1,1,9070,1,1,127,1,Secondary,Basic,123.2,0,0,0,1,0,1,20,0,6,6,6,15,0,0,6,6,6,14.5,0,11.1,0.6,2.02,Graduate
1,1,1,9670,1,1,113,1,Secondary,Basic,116.5,1,0,0,1,0,0,19,0,6,7,6,12.833333,0,0,6,10,6,11.777778,0,8.9,1.4,3.51,Graduate
1,1,6,171,1,1,134,1,Basic,Basic,126,1,0,0,1,0,1,18,0,0,0,0,0,0,0,0,0,0,0,0,9.4,-0.8,-3.12,Graduate
1,1,1,9670,1,1,150,1,Higher,Basic,139.5,0,0,0,1,1,1,20,0,6,7,6,14.833333,0,0,6,6,6,14.833333,0,12.7,3.7,-1.7,Graduate
1,1,4,9500,1,1,132,1,Secondary,Basic,121.8,1,0,0,1,0,1,19,0,8,8,7,13.6,0,0,8,8,7,13.6,0,12.7,3.7,-1.7,Graduate
1,17,1,9500,1,1,128,1,Basic,Basic,131.5,0,0,0,1,0,0,18,0,8,8,8,12.77125,0,0,8,8,8,12.77125,0,9.4,-0.8,-3.12,Graduate
1,17,3,9500,1,1,137,1,Basic,Basic,126.7,1,0,0,1,0,1,19,0,7,7,7,13.714286,0,0,8,11,8,14.863636,0,16.2,0.3,-0.92,Graduate
1,1,2,171,1,1,135,1,Basic,Basic,149,1,0,0,1,1,0,22,14,17,21,17,12.578947,0,15,17,20,17,12.117647,0,11.1,0.6,2.02,Graduate
1,18,1,9500,1,1,126,1,Basic,Basic,119.3,0,0,0,1,0,1,19,0,8,9,8,13.78125,1,0,8,9,8,13.78125,1,9.4,-0.8,-3.12,Graduate
1,1,1,9238,1,1,142,1,Secondary,Basic,128,0,0,0,1,0,1,19,0,6,8,6,12.25,0,0,6,8,6,12,0,16.2,0.3,-0.92,Graduate
1,17,1,9070,1,1,133.1,1,Basic,Basic,128,0,0,0,1,0,1,21,0,6,6,6,11.5,0,0,6,6,6,12.333333,0,9.4,-0.8,-3.12,Graduate
1,18,3,9070,1,1,138,1,Basic,Basic,125.1,1,0,0,1,0,1,19,0,6,6,6,12.666667,0,0,6,6,6,13,0,15.5,2.8,-4.06,Graduate
1,1,3,9773,1,1,135,1,Secondary,Secondary,130.1,1,0,0,1,0,0,18,0,6,6,6,13.666667,0,0,6,7,6,13,0,15.5,2.8,-4.06,Graduate
1,1,2,9500,1,1,131,1,Basic,Basic,122.1,1,0,0,1,0,0,18,0,7,8,7,14.13125,0,0,8,8,8,13.98375,0,15.5,2.8,-4.06,Graduate
1,1,5,9500,1,1,139,1,Basic,Basic,130.5,1,0,0,1,0,0,19,0,8,8,7,14.992857,0,0,8,8,7,14.992857,0,10.8,1.4,1.74,Graduate
1,1,1,9254,1,1,123,1,Secondary,Basic,132.1,0,0,0,1,0,1,21,0,6,9,5,11,0,0,6,8,5,12,0,15.5,2.8,-4.06,Graduate
1,1,3,9085,1,1,142,1,Basic,Basic,155.3,0,0,0,1,0,0,19,0,5,5,5,15.2,0,0,5,6,5,13.2,0,7.6,2.6,0.32,Graduate
1,44,1,9003,1,39,170,1,Basic,Basic,170,1,0,1,1,1,0,21,0,6,7,6,15.285714,0,0,6,6,6,15.166667,0,12.4,0.5,1.79,Graduate
1,1,2,9254,1,1,137,1,Secondary,Basic,122.3,1,0,0,1,1,1,20,0,6,7,6,14.714286,0,0,6,6,6,12.5,0,8.9,1.4,3.51,Graduate
1,17,4,9085,1,1,137,1,Basic,Basic,141.6,0,0,0,1,1,0,21,0,5,7,4,12.25,0,0,5,7,5,12,0,7.6,2.6,0.32,Graduate
2,1,1,9991,0,1,120,1,Basic,Basic,135,1,0,0,1,1,0,32,0,5,5,5,14.8,0,0,5,5,5,14.2,0,7.6,2.6,0.32,Graduate
2,39,1,9991,0,1,140,1,Basic,Basic,130.2,0,0,0,1,0,1,39,0,5,13,4,12.333333,0,0,5,14,2,10,4,16.2,0.3,-0.92,Graduate
1,1,6,9500,1,1,137,1,Secondary,Higher,121.3,1,0,0,1,0,0,20,0,7,7,6,12.6,0,0,7,7,6,12.6,0,7.6,2.6,0.32,Graduate
1,1,2,9238,1,1,140,1,Basic,Basic,140.7,1,0,0,1,0,1,18,0,6,6,6,13.166667,0,0,6,6,6,16,0,10.8,1.4,1.74,Graduate
1,1,3,9670,1,1,106,1,Higher,Secondary,105.7,1,0,0,1,1,0,19,0,6,6,6,13.333333,0,0,6,9,5,13.8,0,8.9,1.4,3.51,Graduate
1,1,1,9085,1,1,130,1,Basic,Basic,122.6,0,0,0,1,0,0,18,0,5,5,5,13,0,0,5,5,5,12.4,0,7.6,2.6,0.32,Graduate
1,17,2,9853,1,1,125,1,Secondary,Basic,119.4,1,0,0,1,0,0,18,0,7,10,7,12.142857,0,0,7,7,7,13.142857,0,12.4,0.5,1.79,Graduate
1,5,1,9130,1,1,157,1,Higher,Higher,149.7,1,0,0,1,0,0,18,0,6,6,6,15,0,0,6,6,6,14.833333,0,8.9,1.4,3.51,Graduate
1,17,2,9556,1,1,133.1,1,Basic,Basic,108,0,0,0,1,0,0,20,0,7,8,7,12.457143,0,0,8,8,8,13.5625,0,15.5,2.8,-4.06,Graduate
1,17,5,9147,1,1,131,1,Basic,Basic,128.9,0,0,0,1,0,1,18,0,5,7,5,11.6,0,0,5,11,5,11.4,4,16.2,0.3,-0.92,Graduate
1,17,1,8014,0,1,136,1,Basic,Basic,132.5,0,0,1,1,0,1,22,1,6,7,4,12.75,0,1,6,8,5,13,0,13.9,-0.3,0.79,Graduate
1,1,6,9500,1,1,133,1,Higher,Higher,126.2,1,0,0,1,0,0,19,0,7,9,7,13.761111,0,0,8,11,7,12.82375,0,15.5,2.8,-4.06,Graduate
1,17,1,171,1,1,143,1,Basic,Basic,156.3,1,0,0,1,1,1,19,0,0,0,0,0,0,0,0,0,0,0,0,11.1,0.6,2.02,Graduate
1,17,2,9147,1,1,146,1,Basic,Basic,143.9,0,0,0,1,0,0,18,0,5,11,5,11.333333,0,0,5,8,5,12,0,13.9,-0.3,0.79,Graduate
1,1,1,9853,1,1,136,1,Basic,Basic,126.9,1,0,0,1,0,1,19,0,7,7,7,13.285714,0,0,7,7,7,14.428571,0,11.1,0.6,2.02,Graduate
1,1,4,9500,1,1,137,1,Basic,Basic,125,1,0,0,1,0,0,19,0,7,7,6,14.616667,0,0,7,7,6,14.616667,0,7.6,2.6,0.32,Graduate
4,39,1,8014,0,1,160,1,Basic,Basic,126,0,0,0,1,0,1,38,4,9,13,8,12.888889,0,2,7,9,7,13,0,13.9,-0.3,0.79,Graduate
1,1,1,9238,1,1,128,1,Basic,Basic,116.5,1,0,0,1,0,1,19,0,6,6,6,13,0,0,6,6,6,14.166667,0,12.4,0.5,1.79,Graduate
1,39,1,9991,0,1,150,1,Secondary,Basic,130.2,0,0,0,1,0,1,24,0,5,7,5,12.285714,0,0,5,9,5,12.75,1,16.2,0.3,-0.92,Graduate
4,39,1,8014,0,1,133.1,1,Basic,Basic,143,0,0,0,1,1,0,37,3,9,13,8,12,0,2,7,8,7,11.571429,0,12.7,3.7,-1.7,Graduate
1,1,1,9085,1,1,149,1,Basic,Basic,147.6,1,0,0,1,0,0,20,0,6,14,6,13.923077,0,0,6,9,6,14.25,0,15.5,2.8,-4.06,Graduate
1,42,1,9500,1,1,120,1,Secondary,Higher,130,1,0,0,1,0,0,22,4,8,8,7,13.285714,0,4,8,8,7,13.285714,0,12.7,3.7,-1.7,Graduate
1,1,1,9254,1,1,121,1,Basic,Basic,117.5,1,0,0,1,0,0,18,0,6,7,6,10.571429,0,0,6,11,3,11.666667,0,16.2,0.3,-0.92,Graduate
1,1,3,9085,1,1,147,1,Basic,Basic,135.6,1,0,0,1,0,0,20,0,6,7,6,16.714286,0,0,6,6,6,15.333333,0,13.9,-0.3,0.79,Graduate
1,1,3,9773,1,1,130,1,Basic,Basic,123,1,0,0,1,0,0,18,0,6,6,6,12.666667,0,0,6,7,6,12.833333,0,12.7,3.7,-1.7,Graduate
1,1,1,9254,1,1,125,1,Basic,Basic,121.5,0,0,0,1,0,1,21,0,6,7,6,12,0,0,6,6,6,12.5,0,13.9,-0.3,0.79,Graduate
1,1,2,9773,1,1,148,1,Basic,Secondary,140,1,0,0,1,0,1,18,0,6,6,6,13.666667,0,0,6,6,6,14.666667,0,16.2,0.3,-0.92,Graduate
1,1,1,9070,1,1,128,1,Basic,Higher,126.3,1,0,0,1,0,0,19,0,6,6,6,13.166667,0,0,6,6,6,12.666667,0,15.5,2.8,-4.06,Graduate
1,1,1,9147,1,1,121,1,Basic,Basic,114,0,0,0,1,0,1,19,0,5,7,5,12.2,0,0,5,6,5,11.2,0,11.1,0.6,2.02,Graduate
1,1,1,9773,1,1,140,1,Basic,Basic,135.8,1,0,0,1,0,1,19,0,6,6,6,13,0,0,6,7,6,13,0,10.8,1.4,1.74,Graduate
1,1,1,9773,1,1,146,1,Secondary,Higher,135.2,1,0,0,1,1,0,18,0,6,7,6,14.166667,0,0,6,6,6,12.833333,0,9.4,-0.8,-3.12,Graduate
1,18,6,9500,1,1,124,1,Basic,Basic,117.8,0,0,0,1,0,1,20,0,8,8,7,12.791429,1,0,8,8,7,12.791429,1,10.8,1.4,1.74,Graduate
1,1,2,9500,1,1,119,1,Secondary,Secondary,115.2,1,0,0,1,0,1,20,0,7,8,7,12.725,0,0,8,8,8,13.7125,0,13.9,-0.3,0.79,Graduate
1,17,1,9254,1,1,127,1,Higher,Basic,116.9,0,0,0,1,1,0,21,0,6,7,5,11,0,0,6,7,5,12.4,0,15.5,2.8,-4.06,Graduate
1,1,3,9500,1,1,114,1,Secondary,Secondary,114.5,1,0,0,1,0,1,19,0,7,7,7,13.094286,0,0,8,8,8,12.55,0,12.4,0.5,1.79,Graduate
1,17,4,9238,1,1,140,1,Basic,Basic,130.2,1,0,0,1,0,1,18,0,6,8,6,12.75,0,0,6,10,6,12.166667,0,12.7,3.7,-1.7,Graduate
1,43,2,9773,1,1,132,1,Basic,Basic,127.1,0,0,0,1,1,0,23,0,6,9,6,12.333333,0,0,6,11,5,13,0,7.6,2.6,0.32,Graduate
1,1,1,9254,1,1,152,1,Basic,Basic,137,1,0,0,1,0,1,22,0,6,9,6,13.875,0,0,6,6,6,14.333333,0,9.4,-0.8,-3.12,Graduate
1,1,1,9500,1,1,136,1,Basic,Basic,136,0,0,0,1,0,1,19,0,7,7,7,14.014286,0,0,8,8,8,15.35,0,13.9,-0.3,0.79,Graduate
1,1,1,9500,1,1,143,1,Basic,Basic,133.9,0,0,0,1,0,0,18,0,7,7,7,15.014286,0,0,8,8,8,16.0875,0,12.4,0.5,1.79,Graduate
1,16,6,9147,1,1,128,1,Basic,Basic,116.5,1,0,0,1,0,0,20,0,5,8,4,11.6,0,0,5,10,3,12.333333,0,7.6,2.6,0.32,Graduate
1,1,1,9238,1,1,136,1,Basic,Basic,121.7,0,1,0,1,0,1,20,0,6,9,6,11.875,0,0,6,7,6,14.428571,0,16.2,0.3,-0.92,Graduate
1,39,1,9254,1,1,150,1,Basic,Basic,115,0,0,0,1,1,0,36,0,6,8,6,13.571429,0,0,6,9,5,13.2,0,12.7,3.7,-1.7,Graduate
1,17,2,9500,1,1,131,1,Basic,Basic,129.8,1,0,0,1,0,0,20,0,7,8,6,14.37,0,0,8,10,7,14.65,0,12.4,0.5,1.79,Graduate
1,16,2,9147,1,1,139,1,Basic,Basic,123.7,1,0,0,1,0,1,22,0,5,8,4,12,0,0,5,8,4,11.4,2,16.2,0.3,-0.92,Graduate
1,1,6,9500,1,1,144,1,Secondary,Basic,127.5,1,0,0,1,0,1,18,0,8,8,7,13.857143,0,0,8,8,7,13.857143,0,12.7,3.7,-1.7,Graduate
1,1,1,9238,1,1,131,1,Basic,Secondary,135.9,1,0,0,1,0,0,18,0,6,8,5,13.2,0,0,6,6,6,11.333333,0,9.4,-0.8,-3.12,Graduate
2,1,1,9003,1,1,131,1,Basic,Basic,118.4,0,0,0,1,0,0,20,0,6,11,6,14.125,0,0,6,10,5,12.6,0,13.9,-0.3,0.79,Graduate
1,17,6,9147,1,1,145,1,Basic,Basic,132,1,0,0,1,0,0,19,0,5,7,4,12.5,0,0,5,8,4,10,1,7.6,2.6,0.32,Graduate
1,17,1,9085,1,1,142,1,Higher,Basic,130.8,1,0,0,1,0,0,18,0,5,9,3,13.666667,1,0,5,5,5,12,0,12.7,3.7,-1.7,Graduate
1,43,2,8014,0,3,130,1,Unknown,Unknown,130,0,0,0,1,1,0,31,8,12,21,12,12.333333,0,6,10,13,7,13.285714,2,7.6,2.6,0.32,Graduate
1,1,3,9500,1,1,143,1,Secondary,Secondary,129,1,0,0,1,1,0,18,0,8,8,7,12.365714,0,0,8,8,7,12.365714,0,10.8,1.4,1.74,Graduate
1,1,3,171,1,1,147,1,Secondary,Basic,151.6,1,0,0,1,0,0,19,0,0,0,0,0,0,0,0,0,0,0,0,13.9,-0.3,0.79,Graduate
1,17,1,9130,1,1,131,1,Basic,Secondary,118.4,0,0,0,1,0,0,19,0,5,8,3,12,0,0,5,7,5,12.833333,0,7.6,2.6,0.32,Graduate
1,17,2,8014,0,1,133.1,1,Basic,Secondary,118,0,0,0,1,0,1,20,0,6,6,6,11.666667,0,0,6,12,5,14,0,10.8,1.4,1.74,Graduate
1,1,1,9238,1,1,128,1,Basic,Basic,120.3,1,0,0,1,0,0,19,0,6,12,2,13,0,0,6,8,5,11.6,0,7.6,2.6,0.32,Graduate
1,17,1,9773,1,1,130,1,Basic,Basic,140.2,0,0,0,1,1,1,19,0,6,6,6,12,0,0,6,7,6,11.666667,0,16.2,0.3,-0.92,Graduate
1,17,6,9238,1,1,117,1,Secondary,Basic,114.6,0,0,0,1,0,1,18,0,6,7,6,12.142857,0,0,6,6,6,13.333333,0,13.9,-0.3,0.79,Graduate
1,18,3,9500,1,1,145,1,Secondary,Secondary,133.6,1,0,0,1,0,0,18,0,7,8,7,13.087143,0,0,8,8,8,12.95,0,11.1,0.6,2.02,Graduate
1,1,1,9070,1,1,148,1,Higher,Secondary,148,1,0,0,1,0,0,20,7,12,12,10,14.7,0,8,12,12,12,14.583333,0,15.5,2.8,-4.06,Graduate
1,1,5,9070,1,1,124,1,Basic,Basic,113.9,1,0,0,1,0,0,20,0,6,6,6,11.166667,0,0,6,6,6,12.166667,0,7.6,2.6,0.32,Graduate
1,17,1,9556,1,1,133,1,Basic,Basic,124.4,1,0,0,1,0,1,18,0,7,7,7,13.3,0,0,8,8,8,15.125,0,15.5,2.8,-4.06,Graduate
1,1,4,9147,1,1,123,1,Secondary,Secondary,117.4,1,0,0,1,0,1,18,0,5,7,5,12,0,0,5,10,5,11.4,0,8.9,1.4,3.51,Graduate
1,1,2,9500,1,1,124,1,Basic,Basic,116.5,1,0,0,1,0,1,20,0,7,9,7,14.093333,0,0,8,8,8,15,0,11.1,0.6,2.02,Graduate
1,1,5,9500,1,1,137,1,Basic,Basic,126.5,1,0,0,1,0,0,18,0,8,8,8,13.76375,0,0,8,8,8,13.76375,0,9.4,-0.8,-3.12,Graduate
1,1,1,9500,1,1,133,1,Secondary,Basic,121.5,1,0,0,1,0,1,20,0,7,8,6,12.396667,0,0,8,9,7,12.942857,0,11.1,0.6,2.02,Graduate
2,43,1,9991,0,3,130,1,Basic,Basic,130,0,0,0,1,0,0,41,5,10,11,10,14.3,0,5,10,10,10,14.2,0,12.7,3.7,-1.7,Graduate
1,1,1,9773,1,1,111,1,Basic,Basic,110,1,0,0,1,0,0,18,0,6,6,5,12.6,0,0,6,8,6,12,0,11.1,0.6,2.02,Graduate
1,1,1,9773,1,1,140,1,Secondary,Basic,141.1,1,0,0,1,0,0,18,0,6,6,6,12.833333,0,0,6,6,6,13.333333,0,9.4,-0.8,-3.12,Graduate
1,53,1,9085,1,42,160,1,Basic,Basic,160,1,0,0,1,0,0,20,7,11,15,11,13.785714,0,4,9,9,9,13.888889,0,8.9,1.4,3.51,Graduate
1,1,1,9147,1,1,102,1,Basic,Basic,99.6,1,0,0,1,0,1,21,0,5,10,5,13.714286,0,0,5,7,5,14.4,0,11.1,0.6,2.02,Graduate
2,43,1,8014,0,1,133.1,1,Unknown,Unknown,100,0,0,0,1,0,1,35,11,16,16,16,12.6875,0,11,13,13,13,12,0,9.4,-0.8,-3.12,Graduate
1,15,1,9238,1,1,150,26,Basic,Secondary,146.5,1,0,1,0,1,0,22,0,6,10,5,11.5,0,0,6,8,5,12.4,0,13.9,-0.3,0.79,Graduate
1,1,3,9254,1,1,122,1,Basic,Basic,124.5,1,0,0,1,0,0,19,0,6,12,6,11.666667,0,0,6,14,3,12,0,7.6,2.6,0.32,Graduate
1,39,1,8014,0,1,130,1,Basic,Basic,103.5,0,0,0,1,0,1,33,0,6,6,6,14.166667,0,0,6,6,6,14.333333,0,12.7,3.7,-1.7,Graduate
1,44,1,9085,1,39,150,6,Higher,Higher,150,0,0,0,1,0,0,20,2,6,7,6,13.333333,0,1,6,16,5,13.375,0,12.4,0.5,1.79,Graduate
1,1,1,9238,1,1,132,1,Unknown,Unknown,119.1,1,0,0,1,0,0,18,0,6,9,4,11,0,0,6,9,4,10.75,0,7.6,2.6,0.32,Graduate
2,39,1,9070,1,1,160,1,Higher,Secondary,126.5,0,0,0,1,0,1,30,1,6,8,6,13,1,0,6,9,5,12.857143,0,13.9,-0.3,0.79,Graduate
1,44,1,9238,1,39,140,1,Basic,Basic,144.3,1,0,0,1,0,1,19,3,6,7,6,13.142857,0,2,6,6,6,14.333333,0,12.4,0.5,1.79,Graduate
1,1,1,9670,1,1,141,1,Secondary,Secondary,126.3,0,0,0,1,1,1,18,0,6,8,6,12.166667,0,0,6,7,5,13,0,13.9,-0.3,0.79,Graduate
2,39,1,9500,1,1,133.1,1,Secondary,Basic,120,0,0,0,1,1,1,34,0,8,8,7,13.842857,0,0,8,8,7,13.842857,0,12.7,3.7,-1.7,Graduate
1,1,1,9147,1,1,133.1,1,Basic,Basic,95,0,0,0,1,0,0,20,0,5,10,4,11.75,0,0,5,8,5,11.8,0,11.1,0.6,2.02,Graduate
1,39,1,9070,1,1,130,1,Secondary,Secondary,112,1,0,0,1,1,1,24,0,6,6,6,15,0,0,6,6,2,16,0,15.5,2.8,-4.06,Graduate
1,1,4,9500,1,1,136,1,Basic,Secondary,133.9,1,0,0,1,0,0,18,0,7,9,7,14.711111,0,0,8,9,8,14.627778,0,15.5,2.8,-4.06,Graduate
1,39,1,9003,1,1,133.1,1,Secondary,Basic,145.8,0,0,0,1,1,0,34,0,6,15,5,13.333333,0,0,6,15,5,12.4,0,12.4,0.5,1.79,Graduate
1,53,1,9147,1,42,140,1,Secondary,Secondary,142.2,0,0,0,1,1,1,21,6,11,11,11,12.636364,0,3,9,11,9,12.6,0,8.9,1.4,3.51,Graduate
2,39,1,8014,0,19,100,1,Unknown,Unknown,100,0,0,0,1,0,0,46,0,6,9,6,13.333333,0,0,6,6,6,11.833333,0,7.6,2.6,0.32,Graduate
1,1,3,9500,1,1,132,1,Basic,Basic,119.3,1,0,0,1,0,0,19,0,8,8,7,11.988571,0,0,8,8,7,11.988571,0,10.8,1.4,1.74,Graduate
2,39,1,8014,0,3,110,1,Basic,Basic,160.5,0,0,0,1,0,0,38,8,11,11,11,12.636364,0,5,8,8,8,11,0,13.9,-0.3,0.79,Graduate
1,17,1,9070,1,1,137,1,Secondary,Secondary,131.8,0,0,0,1,0,1,22,0,6,7,6,12.166667,0,0,6,9,4,12,0,9.4,-0.8,-3.12,Graduate
1,1,3,9556,1,1,132,1,Basic,Basic,119,1,0,0,1,0,0,19,0,7,9,7,11.677778,0,0,8,8,8,13.8,0,12.7,3.7,-1.7,Graduate
1,43,1,9773,1,1,122,1,Secondary,Secondary,126.9,0,0,0,1,0,0,21,0,6,8,6,11.714286,0,0,6,7,6,12,0,7.6,2.6,0.32,Graduate
1,1,1,9254,1,1,140,1,Basic,Secondary,140.9,1,0,0,1,0,1,18,0,6,7,6,12.857143,0,0,6,10,4,13,0,12.7,3.7,-1.7,Graduate
1,17,5,9085,1,1,118,1,Secondary,Basic,122.2,1,0,0,1,0,1,20,0,6,7,6,15.428571,0,0,6,7,6,13.5,0,13.9,-0.3,0.79,Graduate
1,1,1,9500,1,1,147,1,Basic,Basic,142,1,0,0,1,0,0,18,0,7,7,6,14.65,0,0,7,7,6,14.65,0,7.6,2.6,0.32,Graduate
1,44,1,8014,0,39,150,1,Secondary,Basic,146.7,0,0,0,1,0,1,21,3,6,6,6,14.666667,0,2,6,6,6,13.833333,0,12.4,0.5,1.79,Graduate
1,1,1,9500,1,1,133,1,Basic,Basic,123.2,0,0,0,1,0,0,18,0,7,7,7,13.285714,0,0,8,9,8,13.333333,0,16.2,0.3,-0.92,Graduate
1,10,1,9085,1,1,134,1,Basic,Basic,134,1,0,0,1,0,0,22,2,5,7,5,14.2,0,0,5,10,5,12.2,0,12.7,3.7,-1.7,Graduate
1,1,3,9773,1,1,138,1,Higher,Secondary,135.9,1,0,0,1,0,0,18,0,6,7,6,14.857143,0,0,6,6,6,14.666667,0,13.9,-0.3,0.79,Graduate
1,17,1,9238,1,1,120,1,Basic,Basic,113,1,0,0,1,0,1,20,0,6,7,6,11.714286,0,0,6,8,6,12.625,0,13.9,-0.3,0.79,Graduate
1,17,2,9773,1,1,142,1,Basic,Basic,139.9,0,0,0,1,0,1,18,0,6,7,6,13.428571,0,0,6,6,6,12.5,0,13.9,-0.3,0.79,Graduate
1,18,2,9500,1,1,131,1,Secondary,Higher,121.2,1,0,0,1,0,0,18,0,7,8,7,12.4,0,0,8,9,8,12.8,0,16.2,0.3,-0.92,Graduate
2,39,1,9500,1,1,140,1,Basic,Basic,127.3,0,0,0,1,1,0,26,0,8,8,7,13.075714,0,0,8,8,7,13.075714,0,10.8,1.4,1.74,Graduate
5,7,1,9147,1,40,110,1,Basic,Basic,110,0,0,0,1,0,0,23,10,15,15,13,10.923077,0,5,10,10,7,11.142857,0,15.5,2.8,-4.06,Graduate
1,1,4,9500,1,1,142,1,Secondary,Higher,133,0,0,0,1,0,1,20,0,8,8,7,14.565714,0,0,8,8,7,14.565714,0,10.8,1.4,1.74,Graduate
1,17,4,9500,1,1,146,1,Higher,Secondary,140,1,0,0,1,0,0,18,0,8,8,7,14.828571,0,0,8,8,7,14.828571,0,12.7,3.7,-1.7,Graduate
1,1,1,9070,1,1,130,1,Basic,Secondary,120.2,1,0,0,1,1,0,22,0,6,9,6,14.666667,0,0,6,12,6,14.666667,0,12.7,3.7,-1.7,Graduate
1,1,1,9238,1,1,130,1,Basic,Basic,136.3,1,0,0,1,1,0,18,0,6,8,6,12.5,0,0,6,7,6,11.5,0,10.8,1.4,1.74,Graduate
1,17,3,171,1,1,125,1,Basic,Basic,120.5,1,0,0,1,1,0,22,0,0,0,0,0,0,0,0,0,0,0,0,12.4,0.5,1.79,Graduate
1,1,3,9773,1,1,123,1,Secondary,Secondary,125.1,1,0,1,1,1,1,18,0,6,6,6,14.333333,0,0,6,6,6,15.333333,0,11.1,0.6,2.02,Graduate
1,17,1,9991,0,40,127,1,Basic,Basic,124.9,0,0,0,1,0,0,29,0,5,10,5,13.571429,0,0,5,14,5,12.333333,3,16.2,0.3,-0.92,Graduate
1,1,1,9773,1,1,121,1,Secondary,Basic,114.4,0,0,0,1,0,1,18,0,6,6,6,12.666667,0,0,6,6,6,12.833333,0,11.1,0.6,2.02,Graduate
1,1,1,9003,1,1,148,1,Secondary,Basic,143.5,0,0,1,1,1,0,18,0,6,6,5,15,0,0,6,8,4,14.5,0,8.9,1.4,3.51,Graduate
1,1,1,9238,1,1,142,1,Secondary,Basic,127.7,0,0,0,1,0,1,20,0,6,7,6,15,0,0,6,6,6,16.333333,0,13.9,-0.3,0.79,Graduate
1,1,1,9238,1,1,128,1,Basic,Basic,127.3,1,0,0,1,0,1,19,0,6,8,6,14,0,0,6,8,6,12.285714,0,16.2,0.3,-0.92,Graduate
1,1,1,9238,1,1,108,1,Basic,Basic,110.5,1,0,0,1,0,1,22,0,6,6,6,12.166667,0,0,6,6,6,12.5,0,12.4,0.5,1.79,Graduate
1,17,3,171,1,1,147,1,Basic,Secondary,137.6,1,0,0,1,0,1,20,0,0,0,0,0,0,0,0,0,0,0,0,12.7,3.7,-1.7,Graduate
1,17,2,9991,0,1,116,1,Basic,Basic,118.5,0,0,0,1,1,0,23,0,5,6,4,13,0,0,5,5,5,13,0,7.6,2.6,0.32,Graduate
1,16,1,9070,1,1,125,1,Secondary,Secondary,120.8,1,0,0,1,0,0,18,0,6,6,6,14.5,0,0,6,6,6,12.833333,0,12.4,0.5,1.79,Graduate
1,1,3,9773,1,1,115,1,Basic,Secondary,116.1,1,0,0,1,1,0,19,0,6,6,6,12.5,0,0,6,7,5,13,0,12.4,0.5,1.79,Graduate
1,1,1,9238,1,1,137,1,Basic,Secondary,132.8,0,0,0,1,1,0,19,0,6,6,6,12.833333,0,0,6,8,6,11.833333,0,10.8,1.4,1.74,Graduate
1,17,2,9254,1,1,116,1,Basic,Basic,116,1,0,0,1,0,0,19,0,6,7,6,12.714286,0,0,6,6,6,11.833333,0,8.9,1.4,3.51,Graduate
1,44,1,9070,1,39,120,1,Secondary,Basic,116.3,1,1,0,1,1,1,21,2,7,7,4,11.5,0,5,9,10,7,12.142857,0,12.4,0.5,1.79,Graduate
1,1,1,9670,1,1,157,1,Basic,Basic,146.2,1,0,0,1,0,1,20,0,6,8,6,15.25,0,0,6,7,6,14.714286,0,11.1,0.6,2.02,Graduate
1,1,2,9147,1,1,131,1,Secondary,Secondary,118.8,0,0,0,1,1,1,18,0,5,9,4,11.5,0,0,5,5,5,12.8,0,12.4,0.5,1.79,Graduate
1,43,2,9670,1,1,125,1,Basic,Basic,106.6,1,0,0,1,0,0,20,4,6,7,6,11.5,0,0,6,10,4,10.571429,0,10.8,1.4,1.74,Dropout_Enrolled
1,51,1,9085,1,40,120,1,Higher,Higher,125,0,0,0,1,0,0,28,0,6,8,6,14.428571,0,0,6,12,4,15.6,0,11.1,0.6,2.02,Dropout_Enrolled
1,51,1,33,1,1,130,1,Basic,Basic,117.7,0,0,0,1,0,0,34,10,12,12,10,12,0,5,10,11,5,11,0,11.1,0.6,2.02,Dropout_Enrolled
1,1,4,9254,1,1,132,1,Secondary,Basic,124.7,1,0,0,1,0,0,19,0,5,10,0,0,0,0,5,10,0,0,0,7.6,2.6,0.32,Dropout_Enrolled
2,39,1,9500,1,19,133.1,1,Basic,Basic,170,0,0,0,1,1,0,36,0,7,9,6,12.783333,0,0,8,11,0,0,0,16.2,0.3,-0.92,Dropout_Enrolled
1,1,4,9773,1,1,122,1,Higher,Secondary,119.6,1,0,0,1,0,0,19,0,6,6,4,12,0,0,6,11,3,11.333333,0,11.1,0.6,2.02,Dropout_Enrolled
1,43,1,9147,1,1,123,1,Basic,Basic,110,0,0,0,1,1,0,25,0,5,12,3,11,1,0,5,12,4,11.5,0,9.4,-0.8,-3.12,Dropout_Enrolled
1,39,1,8014,0,1,133.1,1,Unknown,Unknown,100,1,0,0,1,0,0,27,0,6,11,4,12.25,0,0,6,16,3,12,0,7.6,2.6,0.32,Dropout_Enrolled
2,7,1,9500,1,3,120,1,Basic,Basic,120,1,0,0,1,0,0,45,7,11,11,11,12.7,0,6,10,12,10,12.968182,0,13.9,-0.3,0.79,Dropout_Enrolled
1,39,1,8014,0,1,133.1,1,Unknown,Unknown,97.5,1,0,0,1,1,0,29,0,6,10,0,0,1,0,5,10,0,0,0,7.6,2.6,0.32,Dropout_Enrolled
1,44,1,9003,1,39,150,1,Higher,Basic,150,0,0,0,1,1,0,20,0,6,6,0,0,0,0,6,8,0,0,0,15.5,2.8,-4.06,Dropout_Enrolled
1,1,1,9147,1,1,118,1,Secondary,Higher,117.3,1,0,0,1,0,0,19,0,5,9,4,12.25,0,0,5,10,4,12,0,8.9,1.4,3.51,Dropout_Enrolled
1,17,2,9119,1,1,127,1,Basic,Secondary,121.1,1,0,0,1,1,1,18,0,5,6,5,13.2,0,0,5,8,5,12.6,0,8.9,1.4,3.51,Dropout_Enrolled
1,1,1,9238,1,1,135,1,Secondary,Basic,122.1,0,1,1,0,1,0,19,0,6,6,4,11.5,0,0,6,6,5,11,0,8.9,1.4,3.51,Dropout_Enrolled
1,1,5,9500,1,1,143,1,Basic,Basic,123.3,1,0,0,1,1,0,18,0,7,0,0,0,0,0,8,0,0,0,0,7.6,2.6,0.32,Dropout_Enrolled
1,7,1,8014,0,40,120,1,Basic,Basic,120,0,0,0,1,0,0,36,6,10,15,4,13,0,5,9,10,4,13.75,0,8.9,1.4,3.51,Dropout_Enrolled
1,17,1,9070,1,1,122,1,Secondary,Secondary,123.8,1,0,1,0,0,1,18,0,6,6,6,11.833333,0,0,6,8,6,11,0,12.7,3.7,-1.7,Dropout_Enrolled
1,1,1,9254,1,1,178,1,Higher,Secondary,157.7,0,0,0,1,1,0,34,0,6,13,2,13.5,0,0,6,6,0,0,0,15.5,2.8,-4.06,Dropout_Enrolled
1,17,1,171,1,1,128,1,Secondary,Secondary,134.7,0,0,0,0,1,0,19,0,0,0,0,0,0,0,0,0,0,0,0,10.8,1.4,1.74,Dropout_Enrolled
1,39,1,9130,1,9,133.1,1,Unknown,Basic,107.5,0,0,0,1,1,0,29,0,5,5,0,0,0,0,5,5,0,0,0,7.6,2.6,0.32,Dropout_Enrolled
1,44,1,9003,1,39,130,1,Basic,Basic,130,0,0,0,1,1,0,25,0,6,6,0,0,0,0,6,8,0,0,0,15.5,2.8,-4.06,Dropout_Enrolled
1,39,1,9556,1,19,100,1,Basic,Basic,120,0,0,0,1,0,0,29,0,7,9,1,10,0,0,7,0,0,0,0,12.7,3.7,-1.7,Dropout_Enrolled
1,1,3,9238,1,1,124,1,Basic,Secondary,116,1,0,1,1,0,0,19,0,6,7,0,0,0,0,5,5,0,0,0,13.9,-0.3,0.79,Dropout_Enrolled
1,17,6,9254,1,1,108,1,Secondary,Basic,112.2,1,0,0,1,1,0,19,0,6,13,5,10.8,0,0,6,12,3,10,0,9.4,-0.8,-3.12,Dropout_Enrolled
1,1,1,9238,1,1,133,1,Unknown,Basic,120.4,0,0,0,0,0,0,21,0,6,12,2,11.5,0,0,6,13,1,13,0,9.4,-0.8,-3.12,Dropout_Enrolled
1,17,3,9085,1,1,130,1,Basic,Basic,121.3,1,0,0,1,0,0,21,0,5,14,2,13,2,0,5,8,4,12,1,9.4,-0.8,-3.12,Dropout_Enrolled
1,44,1,9003,1,39,140,1,Basic,Basic,140,1,0,0,0,1,0,21,0,6,17,2,12.5,0,0,6,10,0,0,0,16.2,0.3,-0.92,Dropout_Enrolled
1,1,2,9119,1,1,149,1,Basic,Basic,141,0,0,0,1,1,0,18,0,5,9,2,11.666667,0,0,5,9,2,12.5,2,7.6,2.6,0.32,Dropout_Enrolled
1,39,1,9003,1,1,133.1,1,Secondary,Secondary,120,0,0,0,0,1,0,24,0,6,0,0,0,0,0,6,0,0,0,0,13.9,-0.3,0.79,Dropout_Enrolled
1,39,1,9254,1,3,133.1,1,Basic,Basic,130.5,0,0,0,1,0,0,38,0,6,0,0,0,0,0,6,0,0,0,0,15.5,2.8,-4.06,Dropout_Enrolled
1,1,1,9085,1,1,150,1,Basic,Basic,132.1,1,0,1,1,0,0,29,4,5,11,4,12.5,2,1,5,11,2,12.5,0,12.7,3.7,-1.7,Dropout_Enrolled
1,1,1,9853,1,1,126,1,Higher,Secondary,116.9,1,1,0,1,0,0,18,0,7,10,6,10.666667,0,0,7,12,6,12.833333,0,13.9,-0.3,0.79,Dropout_Enrolled
1,39,2,9556,1,1,130,1,Basic,Basic,110,0,0,0,1,1,1,24,0,7,13,6,10.857143,0,0,7,7,7,11.857143,0,12.7,3.7,-1.7,Dropout_Enrolled
1,1,4,9670,1,1,127,1,Secondary,Secondary,116.5,1,0,0,1,0,0,20,0,6,7,0,0,0,0,6,6,0,0,0,16.2,0.3,-0.92,Dropout_Enrolled
1,1,1,9254,1,1,129,1,Secondary,Secondary,126.2,0,0,1,0,0,1,21,0,6,7,6,13.428571,0,0,6,8,6,11.333333,0,8.9,1.4,3.51,Dropout_Enrolled
1,44,1,9085,1,1,150,1,Basic,Secondary,150,1,0,0,1,0,0,21,0,6,0,0,0,0,0,6,0,0,0,0,10.8,1.4,1.74,Dropout_Enrolled
2,39,1,9556,1,1,120,1,Basic,Basic,150,0,0,0,0,0,0,50,0,7,18,6,10.25,0,0,7,14,4,11.25,0,12.7,3.7,-1.7,Dropout_Enrolled
1,1,1,9238,1,1,140,1,Basic,Basic,132,0,0,0,1,1,0,19,0,6,10,5,11.571429,0,0,6,10,3,13,0,16.2,0.3,-0.92,Dropout_Enrolled
1,51,1,9119,1,1,136,1,Secondary,Basic,133.6,1,0,0,1,1,0,20,4,9,12,9,13.454545,0,2,7,9,6,13.875,0,11.1,0.6,2.02,Dropout_Enrolled
1,17,1,9238,1,1,132,1,Basic,Basic,123.6,1,0,0,1,0,0,18,0,6,9,4,11.5,0,0,6,10,4,10.75,0,7.6,2.6,0.32,Dropout_Enrolled
1,1,1,9085,1,1,148,1,Basic,Basic,131.6,0,0,0,1,1,1,18,0,6,8,6,15.5,0,0,6,9,4,15.5,0,11.1,0.6,2.02,Dropout_Enrolled
1,17,1,9254,1,1,118,1,Basic,Unknown,122.2,1,0,0,1,0,0,22,0,6,10,4,10.5,0,0,6,14,1,11,0,7.6,2.6,0.32,Dropout_Enrolled
1,39,1,9773,1,9,133.1,1,Basic,Secondary,102,1,0,0,1,1,0,28,0,6,11,3,13,0,0,6,15,1,12,0,7.6,2.6,0.32,Dropout_Enrolled
1,1,1,9500,1,1,125,1,Basic,Basic,122,1,0,1,1,0,0,19,0,7,0,0,0,0,0,8,0,0,0,0,11.1,0.6,2.02,Dropout_Enrolled
1,39,1,9991,0,1,140,1,Secondary,Basic,154.5,0,0,0,1,0,0,26,0,1,2,0,0,0,0,5,8,0,0,0,16.2,0.3,-0.92,Dropout_Enrolled
1,39,1,9085,1,1,130,1,Higher,Secondary,120,0,0,0,0,0,0,26,0,6,8,6,15.428571,0,0,6,7,5,14.5,0,11.1,0.6,2.02,Dropout_Enrolled
1,1,2,9254,1,1,120,1,Basic,Basic,115.1,1,0,0,0,1,0,21,0,6,11,3,11,0,0,6,14,0,0,0,9.4,-0.8,-3.12,Dropout_Enrolled
1,43,1,9238,1,1,122,1,Basic,Basic,114.3,1,0,0,1,0,0,22,5,10,15,8,11,0,2,7,16,5,11.2,0,9.4,-0.8,-3.12,Dropout_Enrolled
1,51,1,9238,1,1,141,1,Secondary,Secondary,125,0,0,0,1,1,0,22,0,6,6,0,0,0,0,6,7,0,0,0,11.1,0.6,2.02,Dropout_Enrolled
1,17,3,9085,1,1,120,1,Basic,Basic,111.3,0,0,0,1,0,0,20,0,6,0,0,0,0,0,6,0,0,0,0,11.1,0.6,2.02,Dropout_Enrolled
1,1,2,9773,1,1,121,1,Basic,Basic,122.8,0,0,0,1,1,0,19,0,6,0,0,0,0,0,6,0,0,0,0,12.4,0.5,1.79,Dropout_Enrolled
5,39,1,9147,1,1,133.1,1,Secondary,Basic,114,0,0,0,0,1,0,29,0,5,5,1,13,0,0,5,5,0,0,0,8.9,1.4,3.51,Dropout_Enrolled
1,44,1,9119,1,39,150,1,Basic,Higher,150,0,0,0,1,1,0,20,0,5,16,0,0,0,0,5,12,2,10.5,0,12.7,3.7,-1.7,Dropout_Enrolled
2,39,1,9119,1,19,133.1,1,Basic,Basic,100,0,0,0,1,1,0,36,0,5,0,0,0,0,0,5,0,0,0,0,16.2,0.3,-0.92,Dropout_Enrolled
1,1,1,9254,1,1,143,1,Higher,Basic,133.2,1,0,0,1,0,0,19,0,6,9,5,13.4,0,0,6,16,2,13.5,0,10.8,1.4,1.74,Dropout_Enrolled
1,17,1,9147,1,1,123,1,Secondary,Basic,122,0,0,0,1,1,0,19,0,5,7,3,12.333333,0,0,5,5,0,0,0,8.9,1.4,3.51,Dropout_Enrolled
1,43,1,9670,1,1,141,1,Higher,Higher,133.3,1,0,0,1,1,0,18,0,6,13,4,13.75,0,0,6,8,5,11.2,0,13.9,-0.3,0.79,Dropout_Enrolled
1,1,4,9773,1,1,137,1,Higher,Basic,139.8,1,1,0,1,0,0,18,0,6,10,6,12.571429,0,0,6,11,6,12.571429,0,10.8,1.4,1.74,Dropout_Enrolled
1,1,1,9085,1,1,123,1,Basic,Basic,127.2,0,0,1,0,1,0,20,0,5,7,3,11.333333,0,0,5,8,2,11.5,0,7.6,2.6,0.32,Dropout_Enrolled
1,1,6,9147,1,1,121,1,Higher,Basic,116.8,0,0,0,1,1,0,20,0,5,14,3,12.4,0,0,5,8,5,10.833333,0,13.9,-0.3,0.79,Dropout_Enrolled
1,7,1,9119,1,3,120,1,Basic,Basic,120,0,0,0,0,1,0,40,1,5,7,1,13,0,2,5,5,2,14,0,12.7,3.7,-1.7,Dropout_Enrolled
1,44,1,9085,1,39,160,1,Secondary,Secondary,160,1,1,0,0,1,0,19,2,6,6,6,14,0,1,6,11,6,13.5,0,12.4,0.5,1.79,Dropout_Enrolled
1,5,1,9147,1,1,126,1,Basic,Basic,117.3,1,0,0,1,0,0,19,0,5,15,3,10.8,0,0,5,6,3,10.5,0,13.9,-0.3,0.79,Dropout_Enrolled
1,1,6,9500,1,1,119,1,Secondary,Secondary,115,1,0,0,1,1,1,20,0,7,14,1,13,0,0,7,15,0,0,0,11.1,0.6,2.02,Dropout_Enrolled
1,39,1,9119,1,1,110,1,Secondary,Secondary,125.9,0,0,0,1,1,0,34,0,5,7,0,0,0,0,5,8,1,11,0,10.8,1.4,1.74,Dropout_Enrolled
1,17,6,9500,1,1,142,1,Basic,Basic,131.9,1,0,0,1,0,0,19,0,7,7,7,13.642857,0,0,8,8,8,14.3875,0,13.9,-0.3,0.79,Dropout_Enrolled
1,1,1,9085,1,1,123,1,Secondary,Secondary,116.7,1,0,0,1,1,1,20,0,6,10,4,13.2,0,0,6,8,0,0,0,12.4,0.5,1.79,Dropout_Enrolled
1,1,1,9853,1,1,146,1,Basic,Basic,145.3,1,0,0,1,0,1,18,0,6,8,5,12.8,0,0,6,7,5,13.4,0,9.4,-0.8,-3.12,Dropout_Enrolled
1,7,1,33,1,40,120,1,Basic,Basic,120,1,0,1,0,1,0,25,18,21,26,21,12.363636,0,12,16,21,12,12.25,1,11.1,0.6,2.02,Dropout_Enrolled
1,39,1,9991,0,19,133.1,1,Basic,Basic,105.3,0,0,1,1,0,0,28,0,5,14,2,10.5,0,0,5,6,0,0,0,12.4,0.5,1.79,Dropout_Enrolled
1,17,1,9773,1,1,127,1,Secondary,Secondary,129.8,0,0,0,0,1,0,20,0,6,10,0,0,0,0,5,10,0,0,0,10.8,1.4,1.74,Dropout_Enrolled
1,39,1,8014,0,1,133.1,1,Secondary,Secondary,116.5,0,0,0,1,1,1,24,0,6,6,4,12.25,0,0,6,10,4,11.5,0,12.4,0.5,1.79,Dropout_Enrolled
2,7,1,8014,0,3,130,1,Basic,Basic,140,0,0,0,0,0,0,59,10,15,22,12,13.333333,0,8,8,8,8,12.875,0,10.8,1.4,1.74,Dropout_Enrolled
1,39,1,9500,1,40,130,1,Basic,Basic,130,0,0,0,1,0,0,27,3,8,12,7,12.457143,0,3,8,12,7,12.457143,0,12.7,3.7,-1.7,Dropout_Enrolled
2,39,1,9991,0,1,150,1,Secondary,Higher,146,0,0,0,1,1,0,34,0,5,5,5,14.2,0,0,5,5,5,14.6,0,12.7,3.7,-1.7,Dropout_Enrolled
1,44,1,9070,1,39,120,1,Basic,Secondary,120,1,0,0,1,1,0,23,2,7,8,5,12.2,0,5,9,10,7,12.142857,1,16.2,0.3,-0.92,Dropout_Enrolled
1,5,2,9853,1,1,122,1,Basic,Basic,112.6,1,0,0,1,0,0,22,0,6,10,5,12.6,0,0,6,9,4,11.25,0,12.7,3.7,-1.7,Dropout_Enrolled
1,44,1,9085,1,39,140,1,Secondary,Secondary,140,1,0,0,1,0,0,20,2,6,11,5,14.2,0,0,6,12,2,13.5,0,13.9,-0.3,0.79,Dropout_Enrolled
1,1,2,9119,1,1,126,1,Secondary,Basic,122.5,1,0,0,1,1,0,20,0,5,7,5,10.8,0,0,5,9,3,12,0,8.9,1.4,3.51,Dropout_Enrolled
1,39,1,9003,1,12,133.1,1,Basic,Secondary,130,0,0,0,1,1,0,29,0,6,17,0,0,2,0,6,8,0,0,0,15.5,2.8,-4.06,Dropout_Enrolled
1,1,1,9147,1,1,135,1,Secondary,Basic,130.1,1,0,0,1,0,0,18,0,5,10,4,10.75,1,0,5,13,2,10,0,9.4,-0.8,-3.12,Dropout_Enrolled
1,17,1,9085,1,1,109,1,Basic,Basic,104.1,1,0,1,0,0,1,21,0,6,16,2,13,0,0,6,8,0,0,0,15.5,2.8,-4.06,Dropout_Enrolled
1,39,1,33,1,1,133.1,1,Basic,Basic,96.1,0,0,0,1,1,0,25,0,7,13,2,15,0,0,7,12,2,11.5,0,12.4,0.5,1.79,Dropout_Enrolled
1,17,6,9119,1,1,129,1,Basic,Secondary,117.1,1,0,0,1,1,0,19,0,5,10,0,0,0,0,5,5,0,0,0,7.6,2.6,0.32,Dropout_Enrolled
1,39,1,9500,1,1,110,1,Basic,Basic,130,0,0,1,0,0,0,32,0,7,12,4,13.7,0,0,7,7,0,0,0,16.2,0.3,-0.92,Dropout_Enrolled
1,1,2,9773,1,1,132,1,Basic,Secondary,124.3,1,0,0,1,0,0,19,0,6,6,5,12.2,0,0,6,7,5,10.8,0,10.8,1.4,1.74,Dropout_Enrolled
1,1,1,9119,1,1,128,1,Basic,Basic,124.5,1,0,0,1,1,0,19,0,5,10,3,10.666667,0,0,5,9,2,14,2,7.6,2.6,0.32,Dropout_Enrolled
2,51,1,8014,0,19,133.1,1,Basic,Basic,104,0,0,1,1,0,0,42,5,11,14,10,11.9,0,5,11,14,10,12.8,0,11.1,0.6,2.02,Dropout_Enrolled
1,39,1,9130,1,19,133.1,1,Unknown,Unknown,96,0,0,0,1,1,0,31,0,5,5,0,0,0,0,5,5,0,0,0,7.6,2.6,0.32,Dropout_Enrolled
1,17,3,9119,1,1,115,1,Higher,Secondary,116.1,1,0,0,0,1,0,18,0,5,8,5,12.5,0,0,5,7,5,13.571429,0,12.4,0.5,1.79,Dropout_Enrolled
1,44,1,9003,1,39,140,1,Basic,Basic,140,0,0,0,1,1,0,19,0,6,15,3,13.25,0,0,6,9,1,12,0,13.9,-0.3,0.79,Dropout_Enrolled
1,39,1,8014,0,19,133.1,1,Basic,Basic,100,0,0,0,1,0,0,38,0,6,10,3,10.25,0,0,6,7,1,12,0,13.9,-0.3,0.79,Dropout_Enrolled
1,17,5,9238,1,1,130,1,Basic,Secondary,130,1,0,0,1,0,0,20,0,6,8,4,11.25,0,0,6,15,3,10,0,9.4,-0.8,-3.12,Dropout_Enrolled
1,17,4,9119,1,1,122,62,Secondary,Secondary,121,1,0,0,1,1,0,20,0,5,10,4,14.25,0,0,5,14,1,10,0,8.9,1.4,3.51,Dropout_Enrolled
1,1,2,9147,1,1,130,1,Basic,Basic,117.8,0,0,1,1,0,1,19,0,5,11,2,11.5,0,0,5,10,0,0,0,12.7,3.7,-1.7,Dropout_Enrolled
1,7,1,9003,1,3,140,1,Higher,Basic,140,0,0,0,0,1,0,35,0,6,10,5,15.2,0,1,6,9,1,11,0,15.5,2.8,-4.06,Dropout_Enrolled
1,43,1,9991,0,1,120,1,Basic,Basic,107,0,0,0,0,1,0,47,0,5,5,0,0,0,0,5,5,0,0,0,12.7,3.7,-1.7,Dropout_Enrolled
1,1,1,9773,1,1,128,1,Basic,Secondary,124.2,1,0,0,1,0,0,18,0,6,8,5,13,0,0,6,7,6,13.142857,0,15.5,2.8,-4.06,Dropout_Enrolled
1,1,1,9853,1,1,129,1,Basic,Basic,138.1,0,0,0,1,0,0,19,0,6,8,6,12,0,0,6,10,4,11.5,0,7.6,2.6,0.32,Dropout_Enrolled
1,39,2,9119,1,1,120,1,Basic,Basic,128,0,0,0,1,1,0,30,0,2,2,0,0,0,0,2,2,0,0,0,7.6,2.6,0.32,Dropout_Enrolled
1,17,1,9670,1,1,127,1,Higher,Higher,121.4,0,0,0,1,1,0,18,0,6,0,0,0,0,0,6,0,0,0,0,15.5,2.8,-4.06,Dropout_Enrolled
1,17,1,9853,1,1,112,1,Higher,Basic,106.1,1,0,0,1,0,0,19,0,6,8,5,12.333333,0,0,6,8,5,11,0,15.5,2.8,-4.06,Dropout_Enrolled
1,1,2,9853,1,1,131,1,Secondary,Secondary,121.9,1,0,0,1,0,0,20,0,6,6,6,13.5,0,0,6,6,0,0,0,12.7,3.7,-1.7,Dropout_Enrolled
1,7,1,9556,1,4,190,1,Higher,Higher,190,1,0,0,1,1,0,43,4,4,4,4,13.875,0,1,1,1,1,12.5,0,11.1,0.6,2.02,Dropout_Enrolled
1,1,3,9670,1,1,121,1,Higher,Basic,122.4,1,0,0,1,1,0,19,0,5,7,3,11.666667,0,0,5,5,4,12,0,9.4,-0.8,-3.12,Dropout_Enrolled
1,17,5,9119,1,1,131,1,Basic,Basic,123.3,1,0,0,1,1,1,19,0,5,9,5,12.6,0,0,5,8,2,12.5,0,8.9,1.4,3.51,Dropout_Enrolled
1,1,1,9670,1,1,119,1,Secondary,Basic,115.5,1,0,0,1,0,0,19,0,6,8,4,11,0,0,6,9,4,11,0,10.8,1.4,1.74,Dropout_Enrolled
2,39,1,9003,1,1,133.1,1,Basic,Basic,107.5,0,0,0,0,0,0,35,0,6,0,0,0,0,0,6,0,0,0,0,15.5,2.8,-4.06,Dropout_Enrolled
1,1,1,9147,1,1,130,1,Basic,Basic,124.8,0,0,0,1,0,0,19,0,5,14,1,11,0,0,5,6,0,0,0,13.9,-0.3,0.79,Dropout_Enrolled
1,17,5,9119,1,1,126,1,Basic,Basic,116.9,1,0,1,1,1,0,20,0,5,5,4,14.5,0,0,6,8,3,13.333333,0,11.1,0.6,2.02,Dropout_Enrolled
2,39,1,9130,1,1,150,1,Basic,Basic,130,0,0,0,0,1,0,31,0,4,12,2,11,2,0,5,9,3,11.666667,0,9.4,-0.8,-3.12,Dropout_Enrolled
1,1,1,9254,1,1,145,1,Secondary,Basic,131.7,1,0,0,1,0,1,21,0,6,8,6,12.166667,0,0,6,11,3,11.666667,0,10.8,1.4,1.74,Dropout_Enrolled
1,17,4,9254,1,1,133,1,Basic,Basic,128.5,1,0,0,1,0,1,18,0,6,14,2,11,0,0,6,14,3,10.333333,0,7.6,2.6,0.32,Dropout_Enrolled
1,18,4,9773,1,1,130,1,Basic,Basic,121.3,1,0,0,1,0,0,20,0,6,12,5,12,0,0,6,8,6,11.571429,0,15.5,2.8,-4.06,Dropout_Enrolled
1,39,1,9147,1,1,133.1,41,Basic,Basic,134.8,0,0,0,1,0,0,24,0,5,12,2,10.5,0,0,5,9,4,10,2,16.2,0.3,-0.92,Dropout_Enrolled
2,39,1,9500,1,19,133.1,1,Basic,Basic,120.9,1,0,0,1,0,0,39,0,7,12,4,12,0,0,7,13,4,12.5625,0,11.1,0.6,2.02,Dropout_Enrolled
1,7,1,9991,0,3,130,1,Basic,Basic,130,0,0,0,1,1,0,31,9,9,9,9,14.222222,0,5,5,5,5,12.8,0,12.7,3.7,-1.7,Dropout_Enrolled
1,1,1,171,1,1,163,1,Secondary,Secondary,149.7,1,0,0,1,0,1,18,0,0,0,0,0,0,0,0,0,0,0,0,13.9,-0.3,0.79,Dropout_Enrolled
1,1,1,171,1,1,131,1,Basic,Basic,134.9,1,0,1,1,0,0,20,0,0,0,0,0,0,0,0,0,0,0,0,16.2,0.3,-0.92,Dropout_Enrolled
1,43,1,9254,1,1,110,1,Secondary,Basic,125,0,0,0,0,1,0,31,3,8,19,5,12.166667,0,3,7,12,5,12,0,7.6,2.6,0.32,Dropout_Enrolled
2,44,1,9119,1,39,160,1,Basic,Basic,160,0,0,1,1,1,0,41,3,7,15,5,14.333333,0,1,6,16,6,14.636364,0,12.4,0.5,1.79,Dropout_Enrolled
1,43,1,9991,0,1,120,1,Basic,Basic,100,0,0,0,1,0,0,34,0,5,9,0,0,0,0,5,10,1,11,0,13.9,-0.3,0.79,Dropout_Enrolled
1,1,1,9147,1,1,136,1,Secondary,Higher,137.1,0,0,0,1,1,0,20,0,5,5,0,0,0,0,5,5,0,0,0,12.7,3.7,-1.7,Dropout_Enrolled
1,18,1,9853,1,1,133.1,1,Secondary,Basic,106,1,0,1,1,0,0,21,0,7,7,7,13,0,0,7,8,6,12.5,0,8.9,1.4,3.51,Dropout_Enrolled
1,1,1,9119,1,1,131,1,Higher,Secondary,135.9,0,0,0,1,1,0,18,0,5,10,2,14,0,0,5,7,3,11,1,7.6,2.6,0.32,Dropout_Enrolled
1,7,1,9500,1,5,140,1,Basic,Secondary,140,1,0,0,0,0,0,39,0,7,0,0,0,0,0,8,0,0,0,0,12.4,0.5,1.79,Dropout_Enrolled
1,44,1,9130,1,39,150,1,Secondary,Basic,150,1,0,0,0,0,0,22,1,6,10,3,12.666667,0,0,6,7,0,0,0,15.5,2.8,-4.06,Dropout_Enrolled
1,17,1,9670,1,1,128,1,Basic,Basic,135.7,1,0,0,1,1,0,19,0,6,7,5,13.2,0,0,6,10,5,13.25,0,10.8,1.4,1.74,Dropout_Enrolled
1,44,1,9003,1,39,130,1,Higher,Secondary,130,0,0,0,1,1,0,19,0,6,8,5,11.5,0,0,6,11,6,11.333333,0,12.4,0.5,1.79,Dropout_Enrolled
1,39,1,9670,1,1,148,1,Basic,Basic,130.9,0,0,1,0,1,0,24,0,6,12,0,0,0,0,6,9,0,0,0,10.8,1.4,1.74,Dropout_Enrolled
1,17,2,9773,1,1,123,1,Secondary,Secondary,120.9,1,0,0,1,0,0,18,0,6,0,0,0,0,0,6,0,0,0,0,13.9,-0.3,0.79,Dropout_Enrolled
1,43,2,9238,1,1,129,1,Unknown,Basic,118.9,1,0,0,1,1,0,22,0,6,11,0,0,0,0,5,10,0,0,0,9.4,-0.8,-3.12,Dropout_Enrolled
1,39,1,9670,1,1,150,1,Unknown,Unknown,108,0,0,0,1,0,0,25,0,5,6,1,11,0,0,5,5,0,0,0,7.6,2.6,0.32,Dropout_Enrolled
1,17,4,9119,1,1,129,1,Unknown,Basic,118.9,1,0,0,1,1,0,18,0,5,9,3,11.666667,0,0,5,10,3,11.333333,4,7.6,2.6,0.32,Dropout_Enrolled
1,17,3,9773,1,1,127,1,Basic,Basic,120,0,0,0,1,0,0,18,0,6,6,0,0,0,0,6,0,0,0,0,8.9,1.4,3.51,Dropout_Enrolled
1,43,1,9773,1,1,140,1,Higher,Basic,116.9,0,0,0,1,1,0,32,6,11,15,7,11.285714,0,5,7,10,6,12.333333,0,13.9,-0.3,0.79,Dropout_Enrolled
1,1,1,9238,1,1,133,1,Basic,Secondary,126,0,0,0,1,0,0,20,0,6,11,1,12,0,0,5,10,0,0,0,9.4,-0.8,-3.12,Dropout_Enrolled
1,15,1,9119,1,1,160,32,Secondary,Higher,160,0,0,1,1,0,0,19,0,6,11,2,13.5,1,0,5,11,2,11,0,8.9,1.4,3.51,Dropout_Enrolled
1,1,1,9853,1,1,133.1,1,Basic,Basic,132,1,0,0,1,0,0,21,0,6,8,5,12,0,0,6,9,5,10.8,0,12.7,3.7,-1.7,Dropout_Enrolled
1,18,5,9853,1,1,110,1,Basic,Basic,110,1,0,0,1,0,0,20,0,6,10,4,12.75,0,0,6,14,3,11.333333,0,10.8,1.4,1.74,Dropout_Enrolled
1,1,1,9085,1,1,101,1,Secondary,Basic,98.9,1,0,0,1,0,0,21,0,6,12,4,12.5,0,0,6,13,2,12.666667,0,11.1,0.6,2.02,Dropout_Enrolled
1,1,3,9147,1,1,136,1,Basic,Basic,127.3,1,0,0,1,1,0,19,0,5,8,3,11,0,0,5,7,2,10,0,12.7,3.7,-1.7,Dropout_Enrolled
1,39,1,9003,1,19,133.1,1,Basic,Basic,120,0,0,1,0,1,0,38,0,6,8,0,0,0,0,6,10,0,0,0,16.2,0.3,-0.92,Dropout_Enrolled
1,43,5,8014,0,1,110,1,Unknown,Unknown,110,0,0,0,1,1,0,37,0,6,12,0,0,0,0,5,10,0,0,0,7.6,2.6,0.32,Dropout_Enrolled
2,39,1,9238,1,19,133.1,1,Basic,Basic,103.5,0,0,0,1,1,0,42,0,6,0,0,0,0,0,6,0,0,0,0,15.5,2.8,-4.06,Dropout_Enrolled
1,18,1,9070,1,1,117,1,Secondary,Basic,127.9,1,0,0,1,1,0,20,0,6,6,0,0,0,0,6,6,0,0,0,9.4,-0.8,-3.12,Dropout_Enrolled
1,44,1,9085,1,39,150,1,Basic,Basic,150,0,0,0,1,0,0,20,2,6,8,6,13,0,1,6,18,2,12,0,12.4,0.5,1.79,Dropout_Enrolled
1,1,1,9070,1,1,130,1,Basic,Basic,135.6,1,0,0,1,0,1,19,0,6,9,5,12,0,0,6,10,2,11.333333,0,8.9,1.4,3.51,Dropout_Enrolled
1,1,2,9500,1,1,140,1,Secondary,Basic,129.9,1,0,0,1,0,0,18,0,7,8,7,12.92875,0,0,8,8,8,14.0625,0,15.5,2.8,-4.06,Dropout_Enrolled
1,18,5,9853,1,1,121,1,Basic,Basic,117.5,1,0,1,0,0,0,20,0,6,14,2,12,0,0,6,14,3,11.666667,0,10.8,1.4,1.74,Dropout_Enrolled
1,1,1,9003,1,1,144,1,Basic,Basic,132.8,0,0,0,1,1,1,19,0,6,9,4,12,2,0,6,10,4,12.5,0,15.5,2.8,-4.06,Dropout_Enrolled
2,43,1,8014,0,14,133.1,1,Unknown,Unknown,100,0,0,0,0,0,0,34,3,7,13,3,12,0,2,7,15,1,13,1,9.4,-0.8,-3.12,Dropout_Enrolled
2,39,1,9070,1,12,110,1,Basic,Basic,130,0,0,1,0,1,1,46,0,6,6,0,0,0,0,6,6,0,0,0,15.5,2.8,-4.06,Dropout_Enrolled
1,1,1,9254,1,1,133.1,1,Basic,Basic,97,0,0,0,1,1,0,27,0,6,6,6,10.666667,0,0,6,8,4,11.25,0,10.8,1.4,1.74,Dropout_Enrolled
1,43,1,9147,1,1,122,1,Secondary,Basic,118.9,0,0,0,1,1,0,21,0,5,11,2,10.5,0,0,5,13,0,0,0,12.7,3.7,-1.7,Dropout_Enrolled
1,39,1,9500,1,1,133.1,1,Basic,Basic,128,1,0,0,0,1,0,32,0,7,0,0,0,0,0,8,0,0,0,0,16.2,0.3,-0.92,Dropout_Enrolled
1,44,1,9254,1,39,170,1,Basic,Higher,170,0,0,0,0,1,0,26,2,8,14,8,15.125,0,1,6,12,6,13.666667,0,11.1,0.6,2.02,Dropout_Enrolled
1,15,1,9147,1,1,133.1,21,Secondary,Higher,100,0,0,1,1,1,0,40,0,5,10,1,11,0,0,5,10,1,10,0,11.1,0.6,2.02,Dropout_Enrolled
1,17,4,171,1,1,172,1,Higher,Secondary,155.6,1,0,0,1,1,0,19,0,0,0,0,0,0,0,0,0,0,0,0,9.4,-0.8,-3.12,Dropout_Enrolled
1,1,2,9147,1,1,133,1,Basic,Secondary,121.8,0,0,0,1,1,0,20,0,5,9,4,10.2,0,0,5,6,3,11,0,15.5,2.8,-4.06,Dropout_Enrolled
1,17,2,9670,1,1,132,1,Secondary,Basic,124,1,0,0,1,1,0,21,0,5,7,3,12.333333,0,0,5,5,4,11.25,0,7.6,2.6,0.32,Dropout_Enrolled
1,39,1,171,1,1,133.1,1,Basic,Basic,100,0,0,1,1,1,1,33,0,0,0,0,0,0,0,0,0,0,0,0,15.5,2.8,-4.06,Dropout_Enrolled
2,39,1,9991,0,1,133.1,1,Basic,Basic,133.2,0,0,0,0,1,0,43,0,5,13,2,11.5,0,0,5,12,3,10.8,0,13.9,-0.3,0.79,Dropout_Enrolled
1,17,2,9773,1,1,139,1,Higher,Secondary,124,1,0,0,1,0,1,20,0,6,6,6,14,0,0,6,7,6,13.857143,0,15.5,2.8,-4.06,Dropout_Enrolled
1,43,1,9991,0,3,130,1,Higher,Secondary,130,0,0,0,1,1,0,33,0,5,5,0,0,0,0,5,5,0,0,0,12.7,3.7,-1.7,Dropout_Enrolled
1,17,1,9147,1,1,138,1,Basic,Secondary,123.7,1,0,1,1,0,1,19,0,5,5,4,11,0,0,5,5,0,0,0,11.1,0.6,2.02,Dropout_Enrolled
1,43,1,9773,1,1,127,1,Basic,Secondary,117.6,1,0,0,1,0,0,18,0,6,6,0,0,0,0,6,10,3,11,0,16.2,0.3,-0.92,Dropout_Enrolled
1,43,1,9130,1,6,133.1,1,Secondary,Basic,123.3,1,0,0,1,0,1,21,0,5,7,0,0,0,0,5,5,0,0,0,7.6,2.6,0.32,Dropout_Enrolled
1,17,2,9500,1,1,140,1,Secondary,Secondary,128.5,1,0,0,1,0,0,18,0,7,9,5,14.06,0,0,7,9,6,12.571429,0,12.4,0.5,1.79,Dropout_Enrolled
5,39,1,9991,0,1,120,1,Basic,Basic,138.1,0,0,0,1,1,1,37,0,5,8,5,13,0,0,5,11,4,13.333333,2,16.2,0.3,-0.92,Dropout_Enrolled
2,39,1,9500,1,1,110,1,Basic,Basic,114.3,0,0,0,1,0,0,41,0,7,0,0,0,0,0,8,0,0,0,0,10.8,1.4,1.74,Dropout_Enrolled
1,17,1,9070,1,1,119,1,Basic,Basic,115.2,0,0,0,1,1,1,21,0,6,8,4,11.5,0,0,6,7,5,11,0,15.5,2.8,-4.06,Dropout_Enrolled
1,39,1,9003,1,1,130,1,Basic,Basic,120,0,0,0,1,0,0,25,0,6,6,0,0,0,0,6,6,0,0,0,11.1,0.6,2.02,Dropout_Enrolled
1,17,1,9853,1,1,119,1,Higher,Higher,110.6,0,0,0,1,0,0,20,0,7,9,6,11.833333,0,0,7,7,6,14.333333,0,11.1,0.6,2.02,Dropout_Enrolled
1,1,2,9670,1,1,124,1,Basic,Secondary,117.7,1,0,1,1,1,0,20,0,5,5,4,12,0,0,5,6,5,11.6,0,9.4,-0.8,-3.12,Dropout_Enrolled
1,1,1,9773,1,1,143,1,Higher,Higher,144.8,0,0,0,1,0,0,19,0,6,6,6,12.166667,0,0,6,6,6,12.5,0,16.2,0.3,-0.92,Dropout_Enrolled
1,7,1,9500,1,2,140,1,Basic,Basic,140,0,0,0,1,0,0,29,0,8,14,4,11.325,1,0,8,14,4,11.325,1,12.7,3.7,-1.7,Dropout_Enrolled
1,17,5,9119,1,1,123,1,Higher,Secondary,116,1,0,1,0,1,0,20,0,5,5,0,0,0,0,5,5,0,0,0,8.9,1.4,3.51,Dropout_Enrolled
1,39,1,9119,1,19,133.1,1,Secondary,Secondary,134.4,0,0,1,0,1,0,31,0,5,9,2,13.333333,0,0,5,9,2,16,4,16.2,0.3,-0.92,Dropout_Enrolled
1,1,2,9500,1,1,106,1,Secondary,Basic,106.4,1,0,0,1,0,1,19,0,7,9,5,13.34,0,0,7,9,6,12.385714,0,12.4,0.5,1.79,Dropout_Enrolled
1,1,1,171,1,1,116,1,Basic,Secondary,111.1,0,0,0,1,1,0,21,0,0,0,0,0,0,0,0,0,0,0,0,13.9,-0.3,0.79,Dropout_Enrolled
5,39,1,9853,1,19,133.1,1,Basic,Basic,118,0,0,0,1,0,0,27,0,7,14,6,11.666667,0,0,7,10,1,10,0,12.4,0.5,1.79,Dropout_Enrolled
1,1,1,9254,1,1,118,1,Basic,Basic,114.2,0,0,0,1,0,0,18,0,6,10,5,12.2,0,0,6,10,5,11.6,0,16.2,0.3,-0.92,Dropout_Enrolled
1,18,1,9147,1,1,100,1,Basic,Basic,101.8,1,0,0,1,0,0,24,0,5,5,5,10.8,0,0,5,11,2,11,0,10.8,1.4,1.74,Dropout_Enrolled
1,39,1,171,1,1,110,1,Secondary,Higher,100,1,0,0,1,1,0,27,0,0,0,0,0,0,0,0,0,0,0,0,9.4,-0.8,-3.12,Dropout_Enrolled
2,39,1,9991,0,1,121,1,Basic,Basic,141.4,0,0,1,0,1,0,29,0,5,7,4,11.25,0,0,5,8,4,11.8,0,10.8,1.4,1.74,Dropout_Enrolled
1,17,2,9254,1,1,130,1,Basic,Basic,121.6,1,0,0,1,0,1,18,0,6,9,1,10,1,0,6,6,0,0,0,12.7,3.7,-1.7,Dropout_Enrolled
1,17,1,9500,1,1,160,1,Basic,Basic,147.8,0,0,0,1,0,0,20,0,7,11,6,11.757143,0,0,8,12,6,13.083333,0,15.5,2.8,-4.06,Dropout_Enrolled
1,44,1,9085,1,39,140,1,Basic,Basic,140,1,0,0,1,1,0,19,2,6,10,4,12.5,0,1,6,16,2,12,0,12.4,0.5,1.79,Dropout_Enrolled
1,18,5,9085,1,1,121,1,Higher,Higher,111.9,1,0,0,1,0,0,21,0,5,12,0,0,3,0,5,5,0,0,0,12.7,3.7,-1.7,Dropout_Enrolled
1,18,5,9119,1,1,136,1,Higher,Higher,125.2,1,0,0,1,1,0,19,0,5,9,5,11.833333,0,0,5,9,5,14.714286,0,12.4,0.5,1.79,Dropout_Enrolled
1,1,2,9773,1,1,120,105,Secondary,Secondary,119,1,0,1,0,0,0,18,0,6,6,6,12,0,0,6,6,2,11,0,11.1,0.6,2.02,Dropout_Enrolled
2,39,1,8014,0,1,133.1,1,Basic,Basic,134.5,0,0,0,1,0,0,45,0,6,8,5,13.6,0,0,6,7,5,13,0,15.5,2.8,-4.06,Dropout_Enrolled
1,43,1,9130,1,1,156,1,Basic,Secondary,156,0,0,1,0,1,0,24,0,6,11,5,11.833333,0,0,6,11,4,11.5,0,15.5,2.8,-4.06,Dropout_Enrolled
1,39,1,9991,0,1,100,1,Basic,Basic,153.5,0,0,1,0,1,0,31,0,5,9,0,0,0,0,5,6,0,0,0,12.4,0.5,1.79,Dropout_Enrolled
1,17,3,9070,1,1,132,1,Basic,Secondary,124.3,0,1,0,1,0,0,18,0,6,0,0,0,0,0,6,0,0,0,0,15.5,2.8,-4.06,Dropout_Enrolled
1,17,5,9254,1,1,114,1,Basic,Secondary,109.5,0,0,0,1,1,0,19,0,5,5,0,0,0,0,5,10,0,0,0,10.8,1.4,1.74,Dropout_Enrolled
1,17,2,9119,1,1,120,1,Secondary,Basic,117.2,0,0,0,1,1,1,18,0,5,8,4,13.5,0,0,6,10,6,13.625,0,11.1,0.6,2.02,Dropout_Enrolled
1,1,1,9238,1,1,123,1,Unknown,Basic,120.2,1,0,0,1,0,0,20,0,6,9,5,11.8,0,0,6,10,4,11.5,0,7.6,2.6,0.32,Dropout_Enrolled
1,17,2,9500,1,1,126,1,Basic,Basic,126.2,1,0,0,1,0,1,18,0,7,10,5,11.94,0,0,7,8,6,12.8,0,11.1,0.6,2.02,Dropout_Enrolled
1,39,1,9991,0,1,120,1,Unknown,Unknown,120.5,1,0,0,1,1,0,30,0,5,5,2,11,0,0,5,5,0,0,0,7.6,2.6,0.32,Dropout_Enrolled
1,43,1,9119,1,1,130,1,Basic,Basic,120,0,0,1,0,0,0,30,8,12,17,8,11.75,0,6,12,19,6,12.166667,2,7.6,2.6,0.32,Dropout_Enrolled
1,1,1,9147,1,1,128,1,Basic,Basic,122.1,0,0,0,1,0,1,18,0,5,11,4,11.571429,0,0,5,9,5,12,0,13.9,-0.3,0.79,Dropout_Enrolled
1,1,2,9254,1,1,137,1,Basic,Basic,125.1,1,0,0,1,0,0,18,0,6,10,4,11.75,0,0,6,9,5,11.2,0,7.6,2.6,0.32,Dropout_Enrolled
1,1,4,9500,1,1,127,1,Basic,Basic,121.5,1,0,0,1,1,0,20,0,7,7,6,13.016667,0,0,7,7,6,13.016667,0,7.6,2.6,0.32,Dropout_Enrolled
1,1,4,9500,1,1,140,1,Higher,Basic,133.8,1,0,0,1,0,0,17,0,8,14,5,12.46,0,0,8,14,5,12.46,0,10.8,1.4,1.74,Dropout_Enrolled
1,44,1,9085,1,39,130,1,Higher,Higher,130,0,0,0,0,1,0,20,2,6,10,5,13.2,0,1,6,21,3,12,0,12.4,0.5,1.79,Dropout_Enrolled
1,17,3,9853,1,1,133.1,1,Unknown,Unknown,115,0,0,0,1,0,0,18,0,6,10,2,10.5,0,0,6,13,0,0,0,7.6,2.6,0.32,Dropout_Enrolled
2,39,1,33,1,1,120,1,Basic,Secondary,153.8,0,0,1,1,1,0,35,0,7,9,0,0,0,0,7,8,0,0,0,11.1,0.6,2.02,Dropout_Enrolled
2,42,1,9070,1,1,170,1,Basic,Secondary,148.5,0,0,0,1,1,0,47,8,10,14,8,14.625,0,5,7,7,5,13.4,0,9.4,-0.8,-3.12,Dropout_Enrolled
1,1,1,9085,1,6,122,1,Basic,Basic,126.2,1,0,0,1,0,0,22,0,5,14,4,14.25,3,0,5,9,5,13.2,4,9.4,-0.8,-3.12,Dropout_Enrolled
1,1,5,9773,1,1,130,1,Unknown,Basic,128.3,1,0,0,0,0,1,18,0,6,12,3,12,0,0,6,15,3,10.666667,0,7.6,2.6,0.32,Dropout_Enrolled
1,43,1,9003,1,1,120,1,Higher,Higher,115,0,0,0,1,1,0,22,0,6,12,0,0,0,0,6,10,0,0,0,16.2,0.3,-0.92,Dropout_Enrolled
1,17,2,171,1,1,130,41,Secondary,Secondary,148.6,1,0,0,1,1,0,20,0,0,0,0,0,0,0,0,0,0,0,0,11.1,0.6,2.02,Dropout_Enrolled
1,1,5,9130,1,1,160,1,Higher,Secondary,150.2,1,0,0,1,0,0,19,0,5,13,1,13,0,0,5,7,2,12.5,0,12.7,3.7,-1.7,Dropout_Enrolled
1,1,1,9254,1,1,154,1,Higher,Secondary,137.2,0,0,0,1,1,0,20,0,6,12,3,10,0,0,6,9,5,10.8,0,15.5,2.8,-4.06,Dropout_Enrolled
2,39,1,9130,1,1,130,1,Basic,Basic,160,0,0,0,1,1,0,31,1,6,11,2,12,1,1,6,12,1,10,1,16.2,0.3,-0.92,Dropout_Enrolled
1,43,1,9070,1,1,160,1,Secondary,Higher,100,0,0,0,1,1,0,38,1,6,9,5,16,1,0,6,11,4,16.5,0,13.9,-0.3,0.79,Dropout_Enrolled
1,51,1,9003,1,39,130,1,Secondary,Basic,120,1,0,1,0,1,0,22,0,6,12,3,11.333333,0,0,6,13,2,11,0,8.9,1.4,3.51,Dropout_Enrolled
1,39,1,9254,1,1,133.1,1,Basic,Basic,123,0,0,1,0,0,1,28,0,6,6,6,10.833333,0,0,6,7,5,11,0,13.9,-0.3,0.79,Dropout_Enrolled
1,1,3,9147,1,1,125,1,Secondary,Basic,120.1,0,0,1,1,1,0,19,0,5,8,5,11.2,0,0,5,10,4,10.75,3,16.2,0.3,-0.92,Dropout_Enrolled
1,1,5,9500,1,1,111,1,Higher,Higher,108.2,1,0,0,1,0,0,20,2,7,9,6,13.266667,0,0,7,10,5,12.3,0,12.4,0.5,1.79,Dropout_Enrolled
4,39,1,9773,1,12,120,1,Basic,Basic,130,0,0,0,0,1,0,55,0,6,8,5,11.4,0,0,6,9,5,12.4,0,10.8,1.4,1.74,Dropout_Enrolled
1,17,1,9773,1,1,117,1,Basic,Basic,111.1,0,0,1,1,1,0,19,0,6,6,4,11.25,0,0,6,6,3,11.333333,0,16.2,0.3,-0.92,Dropout_Enrolled
1,17,3,9773,1,1,135,1,Secondary,Basic,135,0,0,0,1,0,0,18,0,6,6,6,13.5,0,0,6,6,6,13.333333,0,12.4,0.5,1.79,Dropout_Enrolled
1,43,1,9070,1,1,115,1,Secondary,Secondary,115,0,0,1,1,1,0,21,5,11,12,9,11.777778,0,3,8,11,3,13.666667,0,15.5,2.8,-4.06,Dropout_Enrolled
1,39,1,9003,1,19,133.1,1,Basic,Basic,140,0,0,0,1,1,0,43,0,6,8,6,12.875,0,0,6,14,5,12.142857,0,16.2,0.3,-0.92,Dropout_Enrolled
1,1,4,9238,1,1,133.1,1,Secondary,Basic,118,1,0,0,1,0,0,19,0,6,0,0,0,0,0,6,0,0,0,0,12.7,3.7,-1.7,Dropout_Enrolled
1,1,3,9773,1,1,130,1,Basic,Basic,157,1,0,0,0,0,0,18,0,6,0,0,0,0,0,6,0,0,0,0,13.9,-0.3,0.79,Dropout_Enrolled
1,1,2,171,1,1,127,1,Higher,Basic,139.6,1,0,1,0,1,1,18,0,0,0,0,0,0,0,0,0,0,0,0,13.9,-0.3,0.79,Dropout_Enrolled
1,1,5,9500,1,1,130,1,Secondary,Higher,118.1,1,0,0,1,1,0,18,0,7,10,6,12.035714,0,0,8,9,7,13.75,0,13.9,-0.3,0.79,Dropout_Enrolled
1,7,3,9130,1,3,130,1,Basic,Basic,130,0,0,0,0,1,0,41,0,5,9,0,0,4,0,5,9,0,0,3,10.8,1.4,1.74,Dropout_Enrolled
1,39,1,8014,0,1,100,1,Basic,Basic,107.5,0,0,0,1,0,0,41,0,2,2,0,0,0,0,6,0,0,0,0,12.7,3.7,-1.7,Dropout_Enrolled
2,39,1,8014,0,19,133.1,1,Basic,Basic,149.5,0,0,0,1,1,0,48,0,6,6,0,0,0,0,5,6,0,0,0,12.4,0.5,1.79,Dropout_Enrolled
1,17,4,9254,1,1,130,1,Basic,Secondary,130,1,0,0,1,1,0,18,0,6,7,4,11,0,0,6,7,3,11.25,0,16.2,0.3,-0.92,Dropout_Enrolled
2,7,1,171,1,3,120,1,Basic,Basic,130,1,0,0,1,1,0,37,0,0,0,0,0,0,0,0,0,0,0,0,7.6,2.6,0.32,Dropout_Enrolled
1,17,1,9254,1,1,119,1,Secondary,Secondary,125,0,0,0,1,1,0,19,0,6,7,5,10.8,0,0,6,10,2,10.5,0,10.8,1.4,1.74,Dropout_Enrolled
1,42,1,8014,0,1,120,1,Basic,Basic,120,1,0,0,1,0,0,30,9,11,19,9,13.444444,1,5,7,7,7,14.714286,0,7.6,2.6,0.32,Dropout_Enrolled
1,39,1,9003,1,1,133.1,6,Secondary,Secondary,129.8,0,0,0,1,1,0,24,0,7,7,7,13.571429,0,0,6,9,5,13.4,0,8.9,1.4,3.51,Dropout_Enrolled
1,1,2,9500,1,1,135,1,Higher,Higher,123,1,0,0,0,0,0,19,0,7,0,0,0,0,0,8,0,0,0,0,12.7,3.7,-1.7,Dropout_Enrolled
1,44,1,9119,1,39,140,1,Higher,Higher,140,0,0,0,1,1,0,23,3,7,12,3,14,0,1,6,12,1,14,0,12.4,0.5,1.79,Dropout_Enrolled
1,18,1,9773,1,1,167,1,Basic,Basic,153,1,0,0,1,1,1,18,0,6,6,1,11,0,0,6,0,0,0,0,8.9,1.4,3.51,Dropout_Enrolled
1,39,1,8014,0,38,133.1,1,Secondary,Secondary,107.5,0,0,1,0,1,0,29,0,6,6,0,0,0,0,5,5,0,0,0,8.9,1.4,3.51,Dropout_Enrolled
2,39,1,9556,1,19,133.1,1,Basic,Basic,99.5,1,0,1,0,0,1,37,0,7,13,1,16,0,0,7,12,0,0,0,8.9,1.4,3.51,Dropout_Enrolled
1,39,1,9556,1,1,130,1,Basic,Basic,113.3,0,0,0,1,0,0,24,0,7,15,5,12.4,0,0,8,14,7,12.15,0,12.4,0.5,1.79,Dropout_Enrolled
1,39,1,9991,0,1,133.1,1,Basic,Basic,128.2,0,0,0,1,0,0,33,0,5,0,0,0,0,0,5,0,0,0,0,12.7,3.7,-1.7,Dropout_Enrolled
1,1,2,9853,1,1,121,1,Basic,Basic,120,1,0,0,1,0,0,18,0,6,10,3,12,0,0,6,8,4,10.25,0,10.8,1.4,1.74,Dropout_Enrolled
1,17,2,9119,1,1,120,1,Secondary,Secondary,120.4,1,0,0,1,1,0,20,0,5,6,3,11,0,0,5,6,0,0,0,10.8,1.4,1.74,Dropout_Enrolled
1,17,2,9853,1,1,133.1,1,Basic,Secondary,107,1,0,0,1,0,0,20,0,7,12,6,11.666667,0,0,7,10,3,13,0,16.2,0.3,-0.92,Dropout_Enrolled
1,17,1,9119,1,1,122,1,Basic,Basic,114.7,0,0,0,1,1,0,20,0,5,6,5,15.8,0,0,5,8,5,13.714286,0,11.1,0.6,2.02,Dropout_Enrolled
1,17,1,9254,1,1,134,1,Basic,Secondary,124.9,1,0,0,1,0,0,19,0,6,11,3,12,0,0,6,11,4,11.25,0,7.6,2.6,0.32,Dropout_Enrolled
1,43,1,8014,0,1,131,1,Basic,Basic,125,0,0,0,1,1,0,24,0,6,13,0,0,3,0,6,6,0,0,0,16.2,0.3,-0.92,Dropout_Enrolled
1,44,1,9003,1,39,130,1,Basic,Basic,130,0,0,1,0,1,0,20,0,6,16,4,11.8,0,0,6,15,2,12,0,16.2,0.3,-0.92,Dropout_Enrolled
1,1,1,9670,1,1,130,1,Secondary,Secondary,119.5,0,0,0,0,1,0,19,0,5,5,0,0,0,0,6,0,0,0,0,9.4,-0.8,-3.12,Dropout_Enrolled
4,39,1,9991,0,1,150,1,Basic,Basic,146.2,0,0,0,1,0,0,30,0,5,11,3,10.333333,0,0,5,10,4,12.8,0,12.4,0.5,1.79,Dropout_Enrolled
2,7,1,9130,1,2,110,1,Basic,Basic,110,1,0,0,1,1,0,37,0,6,9,0,0,0,0,6,6,0,0,0,16.2,0.3,-0.92,Dropout_Enrolled
5,39,1,9003,1,1,133.1,1,Basic,Basic,110,0,0,1,0,0,0,28,0,6,17,5,13,0,0,6,11,4,11.75,0,13.9,-0.3,0.79,Dropout_Enrolled
2,39,1,9238,1,42,170,1,Basic,Basic,159.5,0,0,0,1,1,0,33,0,6,6,0,0,0,0,5,5,0,0,0,8.9,1.4,3.51,Dropout_Enrolled
1,1,2,9147,1,1,125,1,Secondary,Basic,124,1,0,0,1,0,0,19,0,5,5,5,11.2,0,0,5,11,4,11.75,0,10.8,1.4,1.74,Dropout_Enrolled
1,39,1,9003,1,1,140,1,Secondary,Higher,130,0,0,0,1,1,0,25,0,6,8,0,0,0,0,6,10,0,0,0,16.2,0.3,-0.92,Dropout_Enrolled
1,39,1,9085,1,19,133.1,1,Basic,Basic,140,0,0,0,1,0,0,35,0,6,11,3,12.666667,0,0,6,7,0,0,0,11.1,0.6,2.02,Dropout_Enrolled
1,17,2,9070,1,1,152,1,Secondary,Secondary,134.2,1,0,0,1,1,0,20,0,6,7,5,11.8,0,0,6,9,4,12,0,15.5,2.8,-4.06,Dropout_Enrolled
1,1,1,9254,1,1,133.1,1,Higher,Secondary,125,0,0,0,1,1,0,21,0,6,10,5,11.333333,0,0,6,14,2,11.5,0,12.7,3.7,-1.7,Dropout_Enrolled
1,1,1,9670,1,1,120,1,Secondary,Secondary,129.1,1,0,0,1,1,0,18,0,6,6,4,11.25,0,0,6,10,3,10.333333,0,10.8,1.4,1.74,Dropout_Enrolled
1,42,1,9119,1,1,136,1,Secondary,Basic,117.5,0,0,0,1,1,0,19,2,5,6,4,11.8,0,0,5,7,2,11.5,0,15.5,2.8,-4.06,Dropout_Enrolled
1,1,1,9238,1,1,138,1,Secondary,Basic,123,1,0,1,0,0,0,18,0,6,9,5,11.4,0,0,6,14,2,13.5,0,8.9,1.4,3.51,Dropout_Enrolled
1,39,1,9003,1,1,130,1,Basic,Basic,113,1,0,0,0,1,0,35,0,6,17,1,13,0,0,6,8,0,0,0,15.5,2.8,-4.06,Dropout_Enrolled
1,1,1,9500,1,1,133.1,1,Secondary,Basic,115,0,0,0,0,1,0,20,0,7,11,4,12.6,0,0,7,7,4,11.575,0,16.2,0.3,-0.92,Dropout_Enrolled
2,17,3,8014,0,1,123,1,Basic,Basic,113.2,0,0,1,0,0,0,18,0,6,9,3,10.666667,0,0,6,12,0,0,0,7.6,2.6,0.32,Dropout_Enrolled
1,1,1,9070,1,1,124,1,Basic,Basic,138.4,1,0,1,1,0,1,19,1,6,8,6,13.285714,1,0,6,8,6,12.5,0,13.9,-0.3,0.79,Dropout_Enrolled
1,16,2,9147,1,1,129,1,Basic,Basic,127.6,1,0,0,1,1,0,19,0,5,8,5,11.6,0,0,5,9,3,11,0,10.8,1.4,1.74,Dropout_Enrolled
1,39,1,9085,1,1,133.1,1,Basic,Basic,148.2,1,0,1,1,0,0,27,0,6,11,6,12.125,0,0,6,16,5,12,0,12.4,0.5,1.79,Dropout_Enrolled
1,17,2,9853,1,1,127,1,Basic,Basic,121.1,1,0,0,1,1,0,19,0,7,10,6,13.666667,0,0,7,9,6,12.5,0,12.4,0.5,1.79,Dropout_Enrolled
2,1,1,9238,1,1,145,1,Basic,Unknown,139.4,0,0,0,0,0,0,27,0,6,12,2,11,0,0,6,14,4,10.5,0,9.4,-0.8,-3.12,Dropout_Enrolled
1,1,1,9254,1,1,123,1,Basic,Basic,125.1,0,0,0,1,0,0,19,0,6,12,4,11,0,0,6,6,4,12.5,0,16.2,0.3,-0.92,Dropout_Enrolled
1,1,1,9853,1,1,120,1,Basic,Basic,115.1,0,0,0,1,0,1,18,0,6,11,4,12,0,0,6,8,4,10.75,0,15.5,2.8,-4.06,Dropout_Enrolled
1,7,1,9500,1,3,140,1,Higher,Basic,140,0,0,0,1,1,0,27,0,7,0,0,0,0,0,8,0,0,0,0,12.4,0.5,1.79,Dropout_Enrolled
1,17,2,9070,1,1,127,1,Basic,Basic,119.3,1,1,0,1,1,1,25,0,6,8,4,10.25,0,0,6,6,4,11.25,0,12.7,3.7,-1.7,Dropout_Enrolled
1,1,1,9773,1,1,140,1,Higher,Higher,133.4,1,0,0,0,1,0,29,0,6,8,6,16.5,0,0,6,6,5,13.8,0,11.1,0.6,2.02,Dropout_Enrolled
1,39,1,9130,1,19,133.1,1,Basic,Basic,156.4,1,0,1,1,1,0,44,0,6,9,5,11.571429,0,0,6,11,0,0,0,13.9,-0.3,0.79,Dropout_Enrolled
1,1,1,9238,1,1,138,1,Basic,Basic,135.9,1,0,0,1,0,0,19,0,6,11,5,11.6,0,0,6,11,6,11.666667,0,7.6,2.6,0.32,Dropout_Enrolled
1,43,1,9773,1,1,114,1,Basic,Basic,107.4,1,0,0,0,1,0,26,0,6,12,3,12,0,0,6,15,0,0,0,9.4,-0.8,-3.12,Dropout_Enrolled
1,1,1,9853,1,1,125,1,Unknown,Basic,129.2,1,0,1,0,0,0,20,0,6,12,3,10.333333,0,0,6,14,1,11,0,10.8,1.4,1.74,Dropout_Enrolled
1,44,1,9085,1,1,140,1,Secondary,Higher,140,0,0,0,1,0,0,20,0,6,7,6,14.285714,0,0,6,9,3,13,0,13.9,-0.3,0.79,Dropout_Enrolled
1,39,1,9991,0,1,133,1,Basic,Basic,139.2,1,0,1,1,1,0,33,0,5,11,2,12.5,0,0,5,9,2,11.5,1,12.7,3.7,-1.7,Dropout_Enrolled
1,39,1,9991,0,1,133.1,1,Basic,Basic,125.7,0,0,0,1,0,0,26,0,5,9,2,12,0,0,5,9,3,11,0,10.8,1.4,1.74,Dropout_Enrolled
1,39,1,9670,1,12,133.1,1,Secondary,Basic,100,1,0,1,0,0,0,25,0,5,5,5,11.2,0,0,5,5,4,11.25,0,9.4,-0.8,-3.12,Dropout_Enrolled
2,42,1,9853,1,1,133.1,1,Basic,Basic,100,0,0,0,1,0,0,34,6,12,18,11,13,0,4,13,22,8,11.875,0,12.7,3.7,-1.7,Dropout_Enrolled
1,44,1,9085,1,39,140,1,Secondary,Higher,140,0,0,1,0,0,0,24,2,6,11,4,12.5,0,1,6,18,2,11.5,0,12.4,0.5,1.79,Dropout_Enrolled
1,18,1,9147,1,1,147,1,Basic,Secondary,139.3,1,0,0,1,1,0,20,0,5,0,0,0,0,0,5,0,0,0,0,12.4,0.5,1.79,Dropout_Enrolled
1,1,1,9070,1,1,124,1,Basic,Basic,126.8,0,0,0,1,0,1,18,1,6,8,6,12,1,0,6,12,5,11.142857,0,13.9,-0.3,0.79,Dropout_Enrolled
1,44,1,9003,1,1,120,1,Higher,Higher,120,1,0,0,1,1,0,21,4,9,14,7,11.285714,2,2,8,15,4,12.25,0,12.7,3.7,-1.7,Dropout_Enrolled
2,43,1,9147,1,2,120,1,Basic,Basic,122.8,0,0,1,0,0,0,42,13,13,13,13,11.923077,0,12,12,12,12,12.5,0,15.5,2.8,-4.06,Dropout_Enrolled
1,43,2,9670,1,1,135,1,Higher,Basic,123.5,1,0,0,1,1,0,22,0,6,12,0,0,0,0,6,6,0,0,0,16.2,0.3,-0.92,Dropout_Enrolled
1,43,1,9991,0,39,160,1,Basic,Basic,160,0,0,0,1,0,0,24,3,10,16,3,11.666667,0,3,10,24,6,11.833333,0,9.4,-0.8,-3.12,Dropout_Enrolled
4,39,1,9085,1,1,110,1,Basic,Basic,110,0,0,0,0,0,0,35,0,5,14,1,12,2,0,5,11,2,10.5,1,9.4,-0.8,-3.12,Dropout_Enrolled
1,17,5,9670,1,1,115,1,Secondary,Basic,117.1,0,0,0,1,0,0,21,0,5,7,3,12.666667,0,0,5,6,4,12.75,1,7.6,2.6,0.32,Dropout_Enrolled
1,2,1,9853,1,1,120,1,Basic,Basic,122.5,0,0,0,0,0,0,28,11,11,11,11,11.727273,0,8,8,8,8,12,0,15.5,2.8,-4.06,Dropout_Enrolled
1,43,2,9853,1,1,118,1,Basic,Secondary,110,1,0,0,1,0,0,20,0,6,10,4,12.25,0,0,6,8,4,11.5,0,10.8,1.4,1.74,Dropout_Enrolled
1,1,2,9670,1,1,143,1,Basic,Basic,131.8,1,0,0,1,0,1,18,0,6,8,6,13.571429,0,0,6,6,5,12.8,0,12.4,0.5,1.79,Dropout_Enrolled
1,1,1,9853,1,1,142,1,Basic,Secondary,132.6,0,0,0,1,0,0,18,0,6,8,5,12.8,0,0,6,14,3,10,0,9.4,-0.8,-3.12,Dropout_Enrolled
2,39,2,9147,1,1,150,1,Basic,Basic,101,0,0,1,0,0,0,29,0,5,8,3,10.666667,0,0,5,14,2,14.8,0,10.8,1.4,1.74,Dropout_Enrolled
1,43,1,9991,0,1,130,1,Basic,Higher,126.5,1,0,0,0,1,0,23,10,15,24,12,11,0,10,14,21,11,11.363636,1,7.6,2.6,0.32,Dropout_Enrolled
1,39,1,9003,1,1,130,1,Basic,Secondary,126.1,1,0,0,0,1,0,27,0,6,6,0,0,0,0,6,8,0,0,0,15.5,2.8,-4.06,Dropout_Enrolled
1,1,5,9500,1,1,125,1,Secondary,Secondary,115.6,1,0,0,1,0,0,18,0,7,9,6,12.183333,0,0,7,9,6,11.783333,0,16.2,0.3,-0.92,Dropout_Enrolled
1,44,1,9085,1,39,130,1,Basic,Basic,130,1,0,0,1,0,0,23,0,6,7,0,0,0,0,6,7,0,0,0,11.1,0.6,2.02,Dropout_Enrolled
1,1,1,9147,1,1,117,1,Basic,Basic,118.4,0,0,0,1,1,0,20,0,5,8,5,10,0,0,5,10,2,12,0,7.6,2.6,0.32,Dropout_Enrolled
2,7,1,9147,1,3,110,1,Basic,Secondary,110,0,0,0,1,0,0,33,5,8,10,6,12.833333,0,2,5,8,4,12,0,11.1,0.6,2.02,Dropout_Enrolled
1,1,1,9670,1,1,122,1,Secondary,Secondary,126.6,1,0,0,1,0,0,18,0,6,8,6,14.625,0,0,6,9,6,14.142857,0,11.1,0.6,2.02,Dropout_Enrolled
1,17,1,171,1,1,129,1,Basic,Basic,128,0,0,0,0,1,0,20,0,0,0,0,0,0,0,0,0,0,0,0,9.4,-0.8,-3.12,Dropout_Enrolled
2,39,1,9003,1,1,133.1,1,Secondary,Basic,120,0,0,1,0,1,0,25,0,6,17,2,14.5,2,0,6,13,0,0,1,15.5,2.8,-4.06,Dropout_Enrolled
1,1,4,9147,1,1,108,1,Higher,Secondary,109.1,1,0,0,1,1,0,19,0,5,5,0,0,0,0,5,5,0,0,0,12.4,0.5,1.79,Dropout_Enrolled
2,39,1,9003,1,1,111,1,Secondary,Higher,162.4,0,0,1,0,1,0,49,4,12,16,5,11.6,0,2,7,7,5,11.2,0,8.9,1.4,3.51,Dropout_Enrolled
1,44,1,9003,1,39,130,1,Higher,Higher,130,0,0,0,1,1,0,20,0,6,12,4,10.8,0,0,6,13,4,12,0,12.4,0.5,1.79,Dropout_Enrolled
1,39,1,9085,1,1,133.1,1,Higher,Higher,144.9,1,0,0,1,0,0,26,0,6,11,3,11.75,0,0,6,19,4,12.8,0,12.4,0.5,1.79,Dropout_Enrolled
1,39,2,9556,1,1,133.1,1,Secondary,Secondary,100.5,0,0,0,1,1,0,24,0,7,18,0,0,0,0,7,13,0,0,1,11.1,0.6,2.02,Dropout_Enrolled
1,1,1,171,1,1,148,1,Higher,Higher,131.6,1,0,0,1,0,0,21,6,12,12,8,13.875,0,4,11,13,9,12.7,1,8.9,1.4,3.51,Dropout_Enrolled
1,39,1,9500,1,1,133.1,1,Basic,Basic,121.4,0,0,1,1,0,0,28,0,7,12,4,13.375,0,0,7,7,5,13.5,0,13.9,-0.3,0.79,Dropout_Enrolled
2,39,1,9991,0,19,133.1,1,Basic,Basic,150,0,0,0,0,1,0,49,0,5,8,2,11,0,0,5,5,1,11,0,15.5,2.8,-4.06,Dropout_Enrolled
1,1,1,9119,1,1,142,1,Secondary,Basic,129.8,1,0,0,1,1,0,18,0,5,5,0,0,0,0,5,6,1,15,0,10.8,1.4,1.74,Dropout_Enrolled
1,1,1,9670,1,1,133.1,1,Unknown,Basic,147,0,0,0,1,0,0,22,0,5,6,2,12.5,0,0,5,5,0,0,0,9.4,-0.8,-3.12,Dropout_Enrolled
1,1,1,9500,1,1,117,1,Basic,Basic,117.4,1,0,0,1,0,0,19,0,7,12,5,11.8,0,0,7,9,6,11.708333,0,11.1,0.6,2.02,Dropout_Enrolled
2,39,1,9238,1,19,133.1,1,Secondary,Higher,130,0,0,0,1,0,0,31,0,6,6,6,13.166667,0,0,6,8,6,13,0,9.4,-0.8,-3.12,Dropout_Enrolled
2,39,2,9670,1,19,133.1,1,Basic,Basic,135.6,0,0,0,1,0,0,46,0,6,10,5,11.4,0,0,6,9,4,13.75,0,12.4,0.5,1.79,Dropout_Enrolled
1,43,1,9238,1,1,110,1,Basic,Basic,110,0,0,0,1,0,0,36,10,16,24,13,10.692308,1,9,13,19,9,12.307692,0,15.5,2.8,-4.06,Dropout_Enrolled
2,39,2,9556,1,12,133.1,1,Unknown,Unknown,100.5,0,0,0,1,0,0,39,0,3,7,1,14,0,0,2,4,0,0,0,11.1,0.6,2.02,Dropout_Enrolled
1,39,1,9119,1,1,133.1,1,Basic,Basic,101.6,0,0,0,1,1,1,30,0,5,11,0,0,0,0,5,5,0,0,0,12.7,3.7,-1.7,Dropout_Enrolled
1,17,6,9238,1,1,131,1,Secondary,Higher,131.7,1,0,0,1,0,0,18,0,6,8,4,11.75,0,0,6,8,4,12.25,0,9.4,-0.8,-3.12,Dropout_Enrolled
1,43,1,9991,0,1,100,1,Basic,Basic,130,0,0,0,1,1,0,40,1,5,6,4,10.25,0,3,8,18,5,11.2,5,15.5,2.8,-4.06,Dropout_Enrolled
1,39,1,9991,0,1,140,1,Basic,Basic,130,0,0,1,1,0,0,25,0,5,10,4,11.25,0,0,5,9,4,12,0,12.7,3.7,-1.7,Dropout_Enrolled
5,1,3,9085,1,1,133,1,Basic,Basic,119.7,1,0,0,1,0,0,21,0,5,13,5,12.2,2,0,5,10,3,11.333333,1,9.4,-0.8,-3.12,Dropout_Enrolled
1,43,1,9670,1,1,151,1,Basic,Basic,100,0,0,1,1,0,0,20,0,6,12,5,12.2,0,0,6,8,5,14.6,0,13.9,-0.3,0.79,Dropout_Enrolled
1,53,1,9003,1,1,130,1,Basic,Secondary,130,0,0,1,1,1,0,21,7,12,20,10,11.8,0,5,12,15,9,11.444444,0,8.9,1.4,3.51,Dropout_Enrolled
1,39,1,9085,1,1,133.1,1,Basic,Basic,128.2,0,0,0,1,1,0,28,0,5,8,3,12,0,0,5,10,3,11.333333,0,7.6,2.6,0.32,Dropout_Enrolled
1,7,1,9085,1,3,140,1,Basic,Secondary,140,1,0,0,1,0,0,32,0,5,8,1,14,2,0,5,12,0,0,4,10.8,1.4,1.74,Dropout_Enrolled
1,1,2,171,1,1,120,1,Higher,Basic,119.7,1,0,0,1,0,0,21,0,0,0,0,0,0,0,0,0,0,0,0,8.9,1.4,3.51,Dropout_Enrolled
2,1,1,9003,1,1,120,1,Basic,Basic,120.5,1,0,1,1,1,0,35,14,17,17,14,10.642857,1,12,12,12,12,10.666667,0,15.5,2.8,-4.06,Dropout_Enrolled
1,1,1,9500,1,1,141,1,Basic,Secondary,128,0,0,0,1,1,0,18,0,8,8,0,0,3,0,8,8,0,0,3,10.8,1.4,1.74,Dropout_Enrolled
1,17,1,9670,1,1,133,1,Basic,Basic,121.8,1,0,0,1,1,0,22,0,6,0,0,0,0,0,6,0,0,0,0,13.9,-0.3,0.79,Dropout_Enrolled
2,7,1,8014,0,3,170,1,Basic,Basic,170,0,0,0,1,0,0,27,0,5,5,0,0,0,0,6,0,0,0,0,9.4,-0.8,-3.12,Dropout_Enrolled
1,1,1,9773,1,1,120,1,Basic,Basic,118.3,0,0,1,0,1,1,18,0,6,11,5,12.166667,0,0,6,15,3,12,0,13.9,-0.3,0.79,Dropout_Enrolled
1,1,1,171,1,1,162,1,Basic,Basic,142.8,1,0,0,1,1,0,21,0,0,0,0,0,0,0,0,0,0,0,0,12.7,3.7,-1.7,Dropout_Enrolled
1,1,1,9085,1,1,135,1,Basic,Basic,136.8,1,0,0,1,0,0,18,0,5,11,5,14,3,0,5,7,5,11.6,0,9.4,-0.8,-3.12,Dropout_Enrolled
1,1,5,9773,1,1,131,1,Secondary,Basic,132.4,1,0,1,0,1,0,18,0,6,6,0,0,0,0,6,0,0,0,0,11.1,0.6,2.02,Dropout_Enrolled
1,17,1,9773,1,1,112,1,Secondary,Secondary,111.7,0,0,1,0,1,0,19,0,6,6,6,12.5,0,0,6,10,4,12.6,0,15.5,2.8,-4.06,Dropout_Enrolled
1,17,1,9147,1,1,147,1,Basic,Basic,142.8,1,0,1,0,0,1,19,0,5,5,5,12.8,0,0,5,5,4,12,0,11.1,0.6,2.02,Dropout_Enrolled
1,39,1,9119,1,1,130,1,Basic,Higher,137,1,0,0,1,1,0,28,0,5,11,4,10.5,0,0,5,12,4,11,4,7.6,2.6,0.32,Dropout_Enrolled
1,17,4,9254,1,1,122,1,Secondary,Secondary,116.1,1,0,0,1,1,0,19,0,6,7,5,12.2,0,0,6,12,2,12,0,7.6,2.6,0.32,Dropout_Enrolled
1,1,1,9670,1,1,116,1,Basic,Basic,116.7,1,0,0,1,1,0,21,0,5,8,0,0,0,0,5,5,0,0,0,9.4,-0.8,-3.12,Dropout_Enrolled
1,43,1,9254,1,1,130,1,Secondary,Basic,130,0,0,0,1,0,1,19,0,6,11,4,12,0,0,6,14,3,11,0,10.8,1.4,1.74,Dropout_Enrolled
1,5,1,9670,1,1,135,1,Secondary,Secondary,140.3,1,0,0,1,0,0,19,0,6,7,6,13.428571,0,0,6,6,4,14,0,12.4,0.5,1.79,Dropout_Enrolled
1,43,1,9070,1,1,116,1,Secondary,Secondary,120.9,0,0,0,1,1,0,24,0,6,6,0,0,0,0,6,6,0,0,0,12.7,3.7,-1.7,Dropout_Enrolled
1,17,3,9500,1,1,132,1,Basic,Higher,130.8,1,0,0,1,0,0,18,0,8,8,7,13.681429,0,0,8,8,7,13.681429,0,10.8,1.4,1.74,Dropout_Enrolled
1,39,2,9556,1,1,130,1,Basic,Basic,100,0,0,0,1,1,1,25,0,7,7,2,10,0,0,7,7,0,0,0,15.5,2.8,-4.06,Dropout_Enrolled
4,39,1,8014,0,19,100,1,Secondary,Basic,111.5,0,0,0,1,1,0,45,2,8,10,4,11.5,0,2,8,13,4,11,0,10.8,1.4,1.74,Dropout_Enrolled
1,1,1,9070,1,1,116,1,Higher,Higher,108.7,1,0,0,1,1,0,23,0,6,9,4,11.25,1,0,6,10,0,0,4,7.6,2.6,0.32,Dropout_Enrolled
1,51,1,9147,1,1,160,1,Secondary,Basic,118,0,0,0,1,0,0,53,14,15,15,15,11.8,0,12,13,13,12,11.666667,1,8.9,1.4,3.51,Dropout_Enrolled
1,39,1,8014,0,1,134,1,Basic,Basic,110,1,0,0,1,0,0,24,0,6,10,1,10,0,0,6,12,0,0,0,9.4,-0.8,-3.12,Dropout_Enrolled
1,39,1,9500,1,1,110,1,Secondary,Basic,126,1,0,0,1,1,0,27,0,7,7,7,14.085714,0,0,7,7,7,14.085714,0,7.6,2.6,0.32,Dropout_Enrolled
1,17,3,9254,1,1,114,26,Basic,Higher,127.3,1,0,1,0,0,0,20,0,6,14,3,12.333333,0,0,6,16,0,0,0,10.8,1.4,1.74,Dropout_Enrolled
1,17,2,9147,1,1,133.1,1,Secondary,Secondary,95,0,0,0,1,1,0,20,0,5,14,0,0,0,0,5,5,0,0,0,11.1,0.6,2.02,Dropout_Enrolled
2,43,1,9670,1,1,120,1,Unknown,Unknown,128.2,0,0,0,1,1,0,35,0,5,5,0,0,0,0,5,5,1,10,0,9.4,-0.8,-3.12,Dropout_Enrolled
1,18,1,9991,0,1,133.1,1,Basic,Basic,145,0,0,0,1,0,1,21,0,5,6,4,12.25,0,0,5,8,4,11.8,0,10.8,1.4,1.74,Dropout_Enrolled
1,39,1,9991,0,1,130,1,Secondary,Secondary,115.2,0,0,0,1,1,0,24,0,5,5,4,12,0,0,5,6,5,12.666667,0,12.4,0.5,1.79,Dropout_Enrolled
1,7,1,9147,1,2,150,1,Higher,Basic,150,1,0,1,0,0,0,38,0,5,6,0,0,0,0,5,5,0,0,0,15.5,2.8,-4.06,Dropout_Enrolled
1,43,1,9070,1,1,108,1,Basic,Basic,105.2,1,0,0,1,1,0,25,11,17,18,13,11.538462,0,10,15,15,10,12.4,0,12.7,3.7,-1.7,Dropout_Enrolled
1,1,2,9238,1,1,117,1,Basic,Secondary,110,1,0,1,0,0,0,18,0,6,0,0,0,0,0,6,0,0,0,0,11.1,0.6,2.02,Dropout_Enrolled
1,39,2,9238,1,1,110,1,Basic,Secondary,136.5,0,0,0,1,1,0,28,0,5,6,0,0,0,0,5,5,0,0,0,13.9,-0.3,0.79,Dropout_Enrolled
1,44,1,171,1,39,110,1,Basic,Basic,108.3,0,0,0,0,0,0,26,4,9,9,4,11.25,0,3,10,12,3,11,0,12.4,0.5,1.79,Dropout_Enrolled
1,17,1,9254,1,1,126,1,Basic,Basic,126,0,0,0,0,1,0,29,0,6,12,0,0,0,0,6,6,0,0,6,9.4,-0.8,-3.12,Dropout_Enrolled
1,7,1,9085,1,40,140,1,Higher,Higher,140,0,0,1,1,1,0,27,8,13,13,8,13.5,2,5,11,12,5,14.4,0,11.1,0.6,2.02,Dropout_Enrolled
2,1,4,8014,0,1,140,1,Unknown,Unknown,128,1,0,0,1,1,0,37,0,6,0,0,0,0,0,6,0,0,0,0,9.4,-0.8,-3.12,Dropout_Enrolled
1,39,2,9147,1,1,130,1,Basic,Basic,121.5,0,0,0,0,1,0,26,0,5,5,2,10.5,0,0,5,9,0,0,0,10.8,1.4,1.74,Dropout_Enrolled
1,39,1,8014,0,19,100,1,Basic,Basic,111,1,0,0,1,0,1,26,0,6,10,3,12.333333,0,0,6,14,3,11.666667,0,7.6,2.6,0.32,Dropout_Enrolled
1,18,4,9119,1,1,134,1,Basic,Basic,124.9,1,0,1,1,1,0,18,0,5,11,3,10.666667,0,0,5,9,3,11.333333,0,8.9,1.4,3.51,Dropout_Enrolled
4,39,1,9556,1,1,160,1,Basic,Higher,130,0,0,0,1,0,0,25,0,7,14,7,11.95,0,0,8,15,7,12.042857,0,12.7,3.7,-1.7,Dropout_Enrolled
1,39,1,9556,1,19,133.1,1,Basic,Basic,100,0,0,0,1,1,0,31,0,7,7,0,0,0,0,7,7,0,0,0,15.5,2.8,-4.06,Dropout_Enrolled
1,17,4,9773,1,1,147,1,Secondary,Secondary,139.7,1,0,0,1,1,0,18,0,6,10,5,11.6,0,0,6,6,6,12,0,9.4,-0.8,-3.12,Dropout_Enrolled
1,51,1,9556,1,1,131,1,Secondary,Basic,126.6,1,0,0,1,1,0,23,0,7,11,5,12.414286,0,0,7,13,2,13.5,0,8.9,1.4,3.51,Dropout_Enrolled
1,43,1,9991,0,1,136,1,Higher,Higher,133.9,0,0,0,0,1,0,26,8,12,12,8,11.25,0,3,8,8,3,11.333333,0,7.6,2.6,0.32,Dropout_Enrolled
1,16,5,9085,1,1,134,1,Basic,Basic,123.9,1,0,0,1,1,0,18,0,5,11,5,13,2,0,5,7,5,12.4,0,9.4,-0.8,-3.12,Dropout_Enrolled
2,39,1,9254,1,19,133.1,1,Unknown,Unknown,120,0,0,1,0,1,0,45,0,6,12,0,0,0,0,6,12,0,0,0,9.4,-0.8,-3.12,Dropout_Enrolled
1,1,1,9500,1,1,127,1,Higher,Secondary,121.4,0,0,0,1,1,0,20,0,7,10,5,13.976667,0,0,8,9,8,13.222222,0,12.4,0.5,1.79,Dropout_Enrolled
1,43,1,8014,0,1,117,1,Basic,Basic,100,0,0,0,1,0,0,27,0,6,6,4,12.5,0,0,6,6,6,14.333333,0,13.9,-0.3,0.79,Dropout_Enrolled
1,15,1,171,1,1,130,26,Secondary,Secondary,130,0,0,0,1,1,0,21,6,12,12,12,15.083333,0,4,11,15,11,13.083333,0,8.9,1.4,3.51,Dropout_Enrolled
1,1,1,9119,1,1,160,1,Basic,Basic,153.7,0,0,0,1,1,0,19,0,5,7,1,13,0,0,5,7,2,10,0,9.4,-0.8,-3.12,Dropout_Enrolled
1,1,5,171,1,1,160,1,Secondary,Secondary,139.7,0,0,0,1,1,0,18,0,0,0,0,0,0,0,0,0,0,0,0,12.7,3.7,-1.7,Dropout_Enrolled
1,39,1,9991,0,1,120,1,Basic,Basic,120,1,0,0,0,1,0,25,0,5,5,0,0,0,0,5,5,0,0,0,9.4,-0.8,-3.12,Dropout_Enrolled
1,39,1,9991,0,1,130,1,Secondary,Secondary,152.1,0,0,0,1,1,0,28,0,5,13,2,11,0,0,5,12,1,12,0,11.1,0.6,2.02,Dropout_Enrolled
1,16,1,171,1,1,158,1,Basic,Basic,164.3,1,0,0,1,1,1,18,0,0,0,0,0,0,0,0,0,0,0,0,10.8,1.4,1.74,Dropout_Enrolled
1,51,1,9147,1,1,148,1,Secondary,Basic,118.4,1,0,0,1,1,0,30,0,5,7,5,13.4,0,0,5,7,4,13.25,0,8.9,1.4,3.51,Dropout_Enrolled
1,17,1,9254,1,1,121,1,Secondary,Secondary,123.1,1,0,0,1,1,0,21,0,6,11,6,11.166667,0,0,6,14,3,14.666667,0,7.6,2.6,0.32,Dropout_Enrolled
1,7,3,9130,1,3,130,1,Basic,Basic,130,0,0,1,0,0,0,27,1,5,6,2,11.5,0,0,5,5,1,11,0,12.7,3.7,-1.7,Dropout_Enrolled
1,18,3,9070,1,1,142,1,Secondary,Basic,130.8,1,0,0,0,1,0,19,0,6,0,0,0,0,0,6,0,0,0,0,12.7,3.7,-1.7,Dropout_Enrolled
1,43,1,9119,1,1,130,1,Secondary,Secondary,128,0,0,1,0,1,0,27,0,5,5,0,0,0,0,5,7,0,0,0,13.9,-0.3,0.79,Dropout_Enrolled
1,1,1,9130,1,1,130,1,Higher,Higher,117.6,0,0,0,1,1,0,19,0,5,14,2,11.5,2,0,5,8,5,11.4,3,9.4,-0.8,-3.12,Dropout_Enrolled
1,42,1,9003,1,1,160,1,Basic,Secondary,107.8,1,0,0,0,1,0,27,0,6,10,0,0,0,0,6,8,0,0,0,15.5,2.8,-4.06,Dropout_Enrolled
1,18,4,9556,1,1,127,1,Secondary,Basic,121.8,1,0,0,1,0,0,20,0,7,14,7,11.4375,0,0,8,9,8,11.425,0,12.7,3.7,-1.7,Dropout_Enrolled
1,1,5,9147,1,1,133,1,Basic,Higher,123.2,1,0,0,1,1,0,18,0,5,14,4,11,0,0,5,9,5,10.5,0,13.9,-0.3,0.79,Dropout_Enrolled
1,43,2,9991,0,1,140,1,Basic,Basic,124.3,1,0,0,0,1,0,27,0,5,5,0,0,0,0,5,5,0,0,0,12.7,3.7,-1.7,Dropout_Enrolled
1,17,1,9254,1,1,123,1,Basic,Basic,120.6,1,0,0,0,0,0,19,0,6,9,3,11.666667,0,0,6,15,1,10,0,10.8,1.4,1.74,Dropout_Enrolled
2,39,1,9500,1,1,133.1,1,Basic,Basic,118.9,0,0,0,1,0,0,30,0,7,0,0,0,0,0,8,0,0,0,0,13.9,-0.3,0.79,Dropout_Enrolled
1,17,1,9773,1,1,133.1,1,Basic,Basic,117,0,0,0,1,0,0,21,0,6,8,5,11.8,0,0,6,8,5,11.833333,0,15.5,2.8,-4.06,Dropout_Enrolled
1,39,1,9670,1,1,133.1,1,Basic,Basic,125.3,0,1,0,1,1,1,30,0,6,0,0,0,0,0,6,0,0,0,0,12.4,0.5,1.79,Dropout_Enrolled
1,17,2,9773,1,1,133.1,1,Higher,Higher,125.8,1,0,0,0,1,1,22,0,4,8,0,0,0,0,4,8,0,0,0,7.6,2.6,0.32,Dropout_Enrolled
2,43,1,9991,0,1,150,1,Basic,Basic,120.1,0,0,0,0,0,0,39,11,15,15,12,11.916667,0,8,13,14,8,11.25,0,10.8,1.4,1.74,Dropout_Enrolled
1,17,2,9254,1,1,143,1,Secondary,Basic,135,0,0,0,1,0,0,20,0,6,0,0,0,0,0,6,0,0,0,0,11.1,0.6,2.02,Dropout_Enrolled
1,1,1,9070,1,1,123,1,Basic,Basic,124.8,0,0,0,0,0,1,18,0,6,7,5,11.8,0,0,6,7,5,13,0,8.9,1.4,3.51,Dropout_Enrolled
1,39,1,9500,1,1,120,1,Secondary,Higher,105.9,0,0,0,1,0,0,35,0,3,4,3,11.816667,0,0,3,3,3,11.333333,0,11.1,0.6,2.02,Dropout_Enrolled
1,1,1,171,1,1,135,1,Basic,Higher,143.8,1,0,1,1,0,0,19,0,0,0,0,0,0,0,0,0,0,0,0,12.7,3.7,-1.7,Dropout_Enrolled
1,39,1,9991,0,2,140,1,Higher,Higher,155.7,1,0,0,1,1,0,35,0,1,1,0,0,1,0,5,0,0,0,0,10.8,1.4,1.74,Dropout_Enrolled
1,1,3,9254,1,1,121,1,Basic,Basic,125.9,1,0,0,1,0,0,22,0,6,10,4,10,0,0,6,12,2,13.5,0,9.4,-0.8,-3.12,Dropout_Enrolled
1,17,5,9147,1,1,133,1,Secondary,Secondary,129.2,1,0,0,1,0,0,19,0,5,9,2,11,0,0,5,12,2,10,0,7.6,2.6,0.32,Dropout_Enrolled
1,1,1,9147,1,1,138,1,Basic,Basic,131,1,0,0,1,0,0,19,0,5,9,4,11,0,0,5,8,3,10.666667,0,12.4,0.5,1.79,Dropout_Enrolled
2,39,1,9003,1,1,133.1,1,Basic,Basic,100,0,0,0,0,1,0,44,4,10,10,4,11.5,0,1,7,8,1,12,0,15.5,2.8,-4.06,Dropout_Enrolled
2,39,2,9670,1,1,133.1,41,Basic,Basic,130,0,0,0,1,0,0,30,0,6,0,0,0,0,0,6,0,0,0,0,9.4,-0.8,-3.12,Dropout_Enrolled
1,1,1,9147,1,1,133.1,1,Unknown,Unknown,125.3,0,0,0,1,1,0,26,11,15,15,11,10.818182,0,12,14,15,11,11.636364,1,7.6,2.6,0.32,Dropout_Enrolled
1,39,1,9119,1,1,130,1,Basic,Basic,149,1,0,0,1,1,0,33,0,5,10,4,12,0,0,5,8,3,13.666667,1,7.6,2.6,0.32,Dropout_Enrolled
2,39,1,9670,1,1,130,1,Basic,Basic,158,0,0,1,0,0,0,34,0,6,7,4,13.5,0,0,6,6,0,0,6,12.7,3.7,-1.7,Dropout_Enrolled
1,1,5,9500,1,1,130,1,Basic,Basic,127.6,1,0,0,1,0,0,18,0,7,10,7,12.9,0,0,8,15,7,12.142857,0,15.5,2.8,-4.06,Dropout_Enrolled
1,17,6,9500,1,1,136,1,Higher,Basic,125.7,1,0,0,1,0,0,20,0,7,8,6,13.548333,0,0,8,11,6,14.775,0,11.1,0.6,2.02,Dropout_Enrolled
1,7,1,9670,1,3,110,1,Secondary,Basic,110,1,0,0,1,1,0,27,7,12,12,9,12.333333,0,6,11,11,6,13.166667,0,9.4,-0.8,-3.12,Dropout_Enrolled
1,1,1,9130,1,1,138,1,Higher,Higher,123,1,0,0,1,0,0,21,0,5,12,1,11,0,0,5,9,2,10.5,0,12.7,3.7,-1.7,Dropout_Enrolled
1,1,1,9238,1,1,108,1,Basic,Basic,107.3,0,1,0,1,0,1,19,0,6,12,4,10.4,0,0,6,11,4,10.75,0,12.4,0.5,1.79,Dropout_Enrolled
1,17,1,9119,1,1,142,1,Basic,Basic,127.3,0,0,0,1,1,0,18,0,5,10,3,11,0,0,5,6,3,11,1,16.2,0.3,-0.92,Dropout_Enrolled
1,1,1,9085,1,1,120,1,Higher,Secondary,113.4,0,0,0,1,0,0,18,0,6,14,4,11.5,0,0,6,17,3,13.75,0,11.1,0.6,2.02,Dropout_Enrolled
1,1,2,9853,1,1,117,1,Secondary,Basic,109.7,1,0,0,1,0,0,19,0,6,9,5,12.2,0,0,6,10,4,13,0,9.4,-0.8,-3.12,Dropout_Enrolled
2,39,1,9085,1,1,150,1,Basic,Basic,112,0,0,0,1,1,0,34,0,6,0,0,0,0,0,6,0,0,0,0,10.8,1.4,1.74,Dropout_Enrolled
1,1,3,9085,1,1,135,1,Higher,Higher,121,1,0,0,1,0,0,18,0,5,14,3,12.333333,2,0,5,8,5,11.6,0,9.4,-0.8,-3.12,Dropout_Enrolled
1,44,1,9003,1,39,140,1,Secondary,Basic,140,0,0,0,1,1,0,21,0,6,13,4,11.75,0,0,6,15,4,10.5,0,15.5,2.8,-4.06,Dropout_Enrolled
1,1,1,9254,1,1,123,1,Basic,Basic,117.8,0,0,0,1,1,0,19,0,6,10,4,12.75,0,0,6,12,2,13,0,10.8,1.4,1.74,Dropout_Enrolled
2,39,1,9991,0,1,110,1,Basic,Basic,120,1,0,0,0,1,0,40,0,5,10,2,10.5,0,0,5,5,3,10.666667,0,9.4,-0.8,-3.12,Dropout_Enrolled
6,39,1,9500,1,1,133.1,1,Basic,Basic,110,0,0,0,1,0,0,36,0,7,12,4,11.5,0,0,7,14,3,12.333333,0,16.2,0.3,-0.92,Dropout_Enrolled
1,18,3,9853,1,1,128,1,Basic,Basic,116.8,1,0,0,0,1,0,19,0,6,10,4,12,0,0,6,12,0,0,0,10.8,1.4,1.74,Dropout_Enrolled
1,39,1,9085,1,1,150,1,Basic,Basic,100,0,0,0,1,0,0,24,1,6,11,5,13,0,1,6,12,1,12,0,13.9,-0.3,0.79,Dropout_Enrolled
1,39,1,9991,0,1,133.1,1,Basic,Basic,126.3,0,0,0,1,0,1,26,0,5,7,0,0,0,0,5,8,0,0,0,16.2,0.3,-0.92,Dropout_Enrolled
6,39,1,9991,0,12,130,1,Basic,Basic,119,1,0,0,0,1,0,55,0,5,5,0,0,0,0,5,5,0,0,0,7.6,2.6,0.32,Dropout_Enrolled
2,39,1,9085,1,19,133.1,1,Basic,Basic,101,1,0,0,1,0,0,26,0,6,21,3,12.666667,0,0,6,15,2,11,0,15.5,2.8,-4.06,Dropout_Enrolled
1,39,1,9254,1,19,133.1,1,Basic,Basic,101.5,0,0,1,0,1,0,34,0,6,6,0,0,0,0,6,6,0,0,0,15.5,2.8,-4.06,Dropout_Enrolled
2,39,1,9130,1,19,133.1,1,Higher,Secondary,120,1,0,1,0,1,0,28,0,6,12,1,11,0,0,6,9,2,10.5,0,16.2,0.3,-0.92,Dropout_Enrolled
1,39,1,9500,1,19,133.1,1,Basic,Basic,143.7,0,0,0,1,0,0,27,0,7,12,4,14,0,0,7,14,3,12.525,0,12.4,0.5,1.79,Dropout_Enrolled
1,17,1,9853,1,1,133.1,1,Unknown,Basic,117.1,1,0,0,1,0,1,21,0,6,12,0,0,0,0,6,12,0,0,0,7.6,2.6,0.32,Dropout_Enrolled
1,18,1,9085,1,1,106,1,Secondary,Basic,104.6,0,0,0,0,1,0,21,0,6,10,5,14,0,0,6,11,4,14.8,0,11.1,0.6,2.02,Dropout_Enrolled
1,1,5,9773,1,1,110,1,Basic,Basic,117.4,1,0,0,1,0,0,20,0,6,7,6,13.833333,0,0,6,6,6,12.833333,0,11.1,0.6,2.02,Graduate
1,7,1,8014,0,43,180,1,Basic,Basic,180,0,0,0,1,0,0,37,12,14,14,14,16.5,0,8,11,11,11,16.909091,0,8.9,1.4,3.51,Graduate
1,17,1,9500,1,1,130,1,Secondary,Higher,128.6,1,0,0,1,0,0,18,0,7,7,7,14.728571,0,0,8,11,8,16.327273,0,16.2,0.3,-0.92,Graduate
1,43,1,9085,1,39,150,1,Basic,Basic,150,1,0,0,1,0,1,21,2,7,15,3,13,2,1,5,12,5,13.285714,1,10.8,1.4,1.74,Graduate
1,17,2,9238,1,1,128,1,Basic,Basic,116.5,0,0,0,1,0,1,18,0,6,11,5,11.142857,0,0,6,11,4,11.25,0,16.2,0.3,-0.92,Graduate
1,1,4,9254,1,1,105,1,Secondary,Basic,106.1,1,0,0,1,0,0,20,0,6,8,5,11,0,0,6,9,5,11.4,0,13.9,-0.3,0.79,Graduate
1,17,3,9238,1,1,125,1,Basic,Basic,121.5,0,0,0,1,0,0,19,0,6,10,5,11.666667,0,0,6,12,4,11,0,13.9,-0.3,0.79,Graduate
1,1,3,9500,1,1,141,1,Secondary,Secondary,126.3,1,0,0,1,0,0,18,0,8,8,7,13.328571,0,0,8,8,7,13.328571,0,12.7,3.7,-1.7,Graduate
1,17,6,9556,1,1,134,1,Basic,Basic,128.5,1,0,0,1,0,1,18,0,7,9,7,14.1,0,0,8,8,8,13.3125,0,12.7,3.7,-1.7,Graduate
1,1,1,9254,1,1,172,41,Basic,Basic,153.8,1,0,0,1,0,1,20,0,6,6,6,14,0,0,6,6,6,13.333333,0,10.8,1.4,1.74,Graduate
1,1,1,9254,1,1,135,1,Basic,Basic,139.2,0,0,0,1,1,1,19,0,6,6,6,13,0,0,6,6,6,13.166667,0,12.4,0.5,1.79,Graduate
1,17,1,9070,1,1,135,1,Basic,Basic,125.2,1,0,0,1,0,0,19,0,6,6,6,14.333333,0,0,6,6,6,13.5,0,12.7,3.7,-1.7,Graduate
1,17,1,9670,1,1,128,1,Basic,Basic,124.4,0,0,0,1,0,1,19,0,6,6,6,13,0,0,6,6,6,14,0,13.9,-0.3,0.79,Graduate
1,1,1,171,1,1,172,1,Secondary,Secondary,167.1,0,0,0,1,1,1,18,0,0,0,0,0,0,0,0,0,0,0,0,16.2,0.3,-0.92,Graduate
1,1,1,9500,1,1,144,1,Basic,Secondary,137.4,0,0,0,1,0,0,19,0,7,7,7,13.542857,0,0,8,9,8,14.222222,0,16.2,0.3,-0.92,Graduate
1,1,4,9773,1,1,125,1,Basic,Basic,129.6,1,0,0,1,1,0,18,0,6,6,6,12.833333,0,0,6,8,6,12.833333,0,12.4,0.5,1.79,Graduate
2,43,1,9070,1,2,140,1,Basic,Basic,140,1,0,0,1,1,0,38,14,18,18,18,14.5,0,13,18,18,18,14.5,0,16.2,0.3,-0.92,Graduate
1,1,5,9500,1,1,151,1,Secondary,Secondary,127.8,0,0,0,1,0,1,18,0,8,8,7,13.671429,0,0,8,8,7,13.671429,0,12.7,3.7,-1.7,Graduate
1,1,2,9500,1,1,133,1,Basic,Secondary,122.2,0,0,0,1,0,0,20,0,7,9,6,12.783333,0,0,8,9,7,12.842857,0,13.9,-0.3,0.79,Graduate
1,1,2,9500,1,1,152,1,Basic,Basic,139,1,0,0,1,0,0,18,0,7,7,6,14.333333,0,0,7,7,6,14.333333,0,7.6,2.6,0.32,Graduate
1,17,1,9773,1,1,121,1,Basic,Basic,122.4,0,0,0,1,0,0,18,0,6,7,6,12.857143,0,0,6,6,6,13.333333,0,13.9,-0.3,0.79,Graduate
1,17,1,9238,1,1,122,1,Higher,Secondary,114.7,0,0,0,1,0,0,19,0,6,9,5,12.166667,0,0,6,8,6,12.428571,0,13.9,-0.3,0.79,Graduate
1,15,1,9147,1,1,150,1,Basic,Secondary,150,0,0,0,1,1,0,19,0,5,5,5,10.6,0,0,5,8,5,11.6,0,12.4,0.5,1.79,Graduate
1,1,2,9500,1,1,140,1,Secondary,Secondary,128.3,1,0,0,1,0,0,19,0,8,8,7,12.764286,0,0,8,8,7,12.764286,0,10.8,1.4,1.74,Graduate
1,1,1,9500,1,1,135,1,Basic,Higher,121.5,1,0,0,1,0,0,18,0,7,7,6,12.916667,0,0,7,7,6,12.916667,0,7.6,2.6,0.32,Graduate
5,39,1,9991,0,1,110,1,Secondary,Secondary,119,0,0,0,1,1,1,35,0,5,10,4,10.5,0,0,5,6,5,12.6,0,8.9,1.4,3.51,Graduate
1,1,2,9085,1,1,162,1,Basic,Secondary,165.2,1,0,0,1,0,1,18,0,5,6,4,15.75,0,0,5,5,5,13.8,0,10.8,1.4,1.74,Graduate
1,1,1,9130,1,1,161,1,Secondary,Basic,152.3,0,0,0,1,0,0,18,0,6,7,6,15.571429,0,0,6,7,6,14.714286,0,11.1,0.6,2.02,Graduate
1,39,1,9773,1,1,130,1,Secondary,Basic,161.5,0,0,0,1,1,0,36,0,6,7,6,15.285714,0,0,6,6,6,16.5,0,10.8,1.4,1.74,Graduate
1,17,1,9238,1,1,115,1,Basic,Basic,115,1,0,0,1,0,0,19,0,6,6,6,12,0,0,6,7,6,12.857143,0,11.1,0.6,2.02,Graduate
1,53,1,9085,1,42,150,1,Secondary,Basic,145.2,1,0,0,1,0,0,20,7,11,13,11,14.615385,0,4,9,11,9,13.7,0,8.9,1.4,3.51,Graduate
1,17,2,9853,1,1,131,1,Secondary,Basic,121.9,1,0,0,1,0,0,19,0,6,10,5,12.6,0,0,6,7,5,11.2,0,10.8,1.4,1.74,Graduate
1,7,1,9003,1,4,120,1,Higher,Secondary,120,1,0,0,1,0,0,31,8,12,12,11,13.818182,0,4,12,16,12,13.461538,0,15.5,2.8,-4.06,Graduate
1,17,1,9670,1,1,130,1,Higher,Basic,121.6,0,0,0,1,0,0,18,0,6,6,6,13.666667,0,0,6,8,5,13.6,0,8.9,1.4,3.51,Graduate
1,1,1,9070,1,1,126,1,Secondary,Basic,120.1,0,1,0,1,0,1,20,0,6,6,6,13.166667,0,0,6,6,6,12.666667,0,11.1,0.6,2.02,Graduate
1,1,1,9254,1,1,138,1,Basic,Basic,133.1,0,0,0,1,0,0,18,0,6,6,6,12.5,0,0,6,6,6,12.666667,0,15.5,2.8,-4.06,Graduate
1,17,4,9254,1,1,113,1,Basic,Basic,107.4,1,0,0,1,0,1,19,0,6,6,6,12.166667,0,0,6,6,6,12.166667,0,12.4,0.5,1.79,Graduate
1,1,1,9070,1,1,136,1,Higher,Higher,136,1,0,1,0,0,1,19,0,6,6,6,11.833333,0,0,6,8,6,12.875,0,10.8,1.4,1.74,Graduate
1,43,1,9238,1,1,120,1,Secondary,Basic,118.3,0,0,0,1,0,1,20,8,11,12,11,12,0,6,11,14,11,12.75,0,13.9,-0.3,0.79,Graduate
2,43,1,9991,0,1,133.1,1,Basic,Basic,113.5,0,0,0,1,0,1,32,3,10,12,7,11.142857,0,4,10,10,8,12,0,10.8,1.4,1.74,Graduate
1,39,1,8014,0,1,120,1,Secondary,Basic,122,0,0,0,1,0,1,24,0,6,11,5,11,0,0,6,9,5,12.6,0,11.1,0.6,2.02,Graduate
1,17,4,9147,1,1,133,1,Secondary,Secondary,136.2,1,0,0,1,0,0,19,0,5,6,5,12.4,0,0,5,5,5,12.8,0,7.6,2.6,0.32,Graduate
1,17,1,9254,1,1,116,1,Basic,Basic,109.7,1,0,0,1,0,0,22,0,6,7,5,14,0,0,6,6,6,15.666667,0,11.1,0.6,2.02,Graduate
1,44,1,9991,0,39,160,1,Basic,Basic,160,0,0,0,1,0,0,26,0,5,5,5,12,0,0,5,7,5,11.4,0,12.7,3.7,-1.7,Graduate
1,16,2,9085,1,1,136,1,Basic,Basic,123.4,1,0,0,1,0,1,19,0,5,8,5,13.166667,2,0,5,5,5,12.8,0,9.4,-0.8,-3.12,Graduate
1,17,2,9670,1,1,123,1,Higher,Secondary,116.7,0,0,0,1,0,0,19,0,5,5,5,13.4,0,0,5,5,5,14,0,9.4,-0.8,-3.12,Graduate
1,42,3,9500,1,1,136,1,Secondary,Secondary,148.8,1,0,0,1,0,1,19,0,8,8,8,14.2525,0,0,8,8,8,14.2525,0,9.4,-0.8,-3.12,Graduate
1,43,1,9070,1,1,114,1,Basic,Basic,135.9,0,0,0,1,1,0,26,9,14,14,14,14,0,7,13,13,13,13.615385,0,15.5,2.8,-4.06,Graduate
1,1,1,9670,1,1,124,1,Basic,Basic,119.1,0,0,0,1,1,1,20,0,5,7,4,11,0,0,5,7,4,11.5,0,9.4,-0.8,-3.12,Graduate
1,17,4,9085,1,1,128,1,Basic,Basic,117.9,1,0,0,1,0,0,20,0,5,12,2,13.5,0,0,5,12,5,11.285714,1,10.8,1.4,1.74,Graduate
1,1,1,9147,1,1,131,1,Basic,Basic,126.5,0,0,0,1,0,1,18,0,5,5,5,10.6,0,0,5,5,5,11.8,0,12.4,0.5,1.79,Graduate
1,17,1,9085,1,1,113,1,Basic,Basic,118.6,1,0,0,1,0,1,21,0,6,6,6,14.5,0,0,6,8,6,14.666667,0,8.9,1.4,3.51,Graduate
1,1,1,9147,1,1,127,1,Secondary,Basic,130.5,1,0,0,1,0,1,21,0,5,6,5,12.8,1,0,5,7,4,11.25,0,9.4,-0.8,-3.12,Graduate
1,17,5,9070,1,1,131,1,Basic,Basic,126.1,1,0,0,0,0,0,18,0,6,9,4,11.5,1,0,6,6,6,12.166667,0,7.6,2.6,0.32,Graduate
1,1,1,9773,1,1,156,1,Higher,Higher,155,0,0,0,1,0,0,18,0,6,7,6,14.285714,0,0,6,8,6,13.25,0,8.9,1.4,3.51,Graduate
1,1,1,9500,1,1,114,1,Basic,Basic,112.6,1,0,0,1,0,0,19,0,7,10,6,11.85,0,0,8,10,7,13.65,0,16.2,0.3,-0.92,Graduate
1,1,3,9500,1,1,140,1,Basic,Basic,125.5,1,0,0,1,0,1,19,0,8,8,7,14.232857,0,0,8,8,7,14.232857,0,10.8,1.4,1.74,Graduate
1,17,6,9500,1,1,139,1,Basic,Basic,133.5,1,0,0,1,0,1,18,0,8,8,7,15.228571,0,0,8,8,7,15.228571,0,12.7,3.7,-1.7,Graduate
1,17,1,9254,1,1,160,1,Basic,Basic,152,0,0,0,1,0,0,18,0,6,7,6,14.714286,0,0,6,7,6,14.166667,0,12.7,3.7,-1.7,Graduate
1,43,1,8014,0,1,145,6,Unknown,Unknown,134.5,1,0,0,1,1,0,25,8,14,23,11,11.6875,0,6,10,20,8,11.142857,0,9.4,-0.8,-3.12,Graduate
1,1,3,9147,1,1,133,1,Basic,Basic,125,1,0,0,1,0,0,18,0,5,6,5,12.8,1,0,5,6,5,12.6,0,9.4,-0.8,-3.12,Graduate
1,17,1,9254,1,1,140,1,Higher,Secondary,129.9,0,0,0,1,0,1,19,0,6,15,6,11.333333,0,0,6,9,3,12.666667,0,9.4,-0.8,-3.12,Graduate
1,18,2,9500,1,1,135,1,Basic,Basic,125.3,1,0,0,1,0,1,18,0,8,8,7,11.785714,0,0,8,8,7,11.785714,0,12.7,3.7,-1.7,Graduate
1,43,1,9500,1,6,134,1,Secondary,Basic,120.4,1,0,0,1,0,0,19,0,7,7,6,13.333333,0,0,7,7,6,13.333333,0,7.6,2.6,0.32,Graduate
1,1,2,9085,1,1,140,1,Basic,Basic,137,0,0,0,1,0,0,18,0,5,12,5,13.142857,2,0,5,6,5,11.4,0,9.4,-0.8,-3.12,Graduate
1,1,2,9556,1,1,130,1,Secondary,Basic,119.5,1,0,0,1,0,1,21,0,7,7,7,12.242857,0,0,8,8,8,14.125,0,15.5,2.8,-4.06,Graduate
1,1,2,9070,1,1,152,101,Higher,Secondary,168.5,1,0,0,1,1,0,21,0,6,7,5,14.6,0,0,6,6,5,14.2,0,16.2,0.3,-0.92,Graduate
1,39,1,9085,1,1,128,1,Basic,Secondary,157.4,1,0,0,1,0,0,26,0,6,7,6,16.5,0,0,6,8,6,14.285714,0,8.9,1.4,3.51,Graduate
1,17,1,9085,1,1,125,1,Secondary,Basic,117,1,0,0,1,0,1,19,0,5,6,4,12,0,0,5,8,5,13.333333,1,10.8,1.4,1.74,Graduate
1,1,1,9773,1,1,128,1,Secondary,Basic,124.5,0,0,0,1,1,1,19,0,6,10,4,14,0,0,6,9,6,12.333333,0,9.4,-0.8,-3.12,Graduate
1,39,1,9070,1,1,110,1,Basic,Basic,110.2,0,0,0,1,1,0,55,0,6,6,6,14.5,0,0,6,6,6,13.5,0,11.1,0.6,2.02,Graduate
1,1,1,9853,1,1,148,1,Basic,Basic,141.7,0,0,0,1,0,1,18,0,6,8,5,13.4,0,0,6,7,6,13.166667,0,9.4,-0.8,-3.12,Graduate
4,39,1,8014,0,3,100,1,Basic,Basic,130,0,0,0,1,0,1,43,0,6,7,5,12.2,0,0,6,6,6,12.333333,0,9.4,-0.8,-3.12,Graduate
1,39,1,9500,1,1,100,1,Secondary,Basic,122,0,0,0,1,0,0,24,0,8,8,7,12.412857,0,0,8,8,7,12.412857,0,10.8,1.4,1.74,Graduate
1,43,1,9773,1,1,137,1,Basic,Basic,127.9,1,0,0,1,0,0,20,0,6,6,6,11.833333,0,0,6,7,6,12.857143,0,15.5,2.8,-4.06,Graduate
2,39,1,8014,0,1,130,1,Basic,Basic,110,1,0,0,1,0,0,33,0,6,7,6,11,0,0,6,11,5,11,0,9.4,-0.8,-3.12,Graduate
1,1,1,9238,1,1,134,1,Secondary,Secondary,130.9,0,0,1,1,0,0,18,0,6,10,6,11.857143,0,0,6,9,5,11,0,13.9,-0.3,0.79,Graduate
4,39,1,9500,1,1,140,1,Basic,Basic,101.5,1,0,0,1,0,0,24,0,8,11,7,12.16,0,0,8,11,7,12.16,0,10.8,1.4,1.74,Graduate
1,1,3,9070,1,1,161,1,Basic,Basic,154.4,1,0,0,1,0,0,18,0,6,6,6,14.166667,0,0,6,6,6,14,0,16.2,0.3,-0.92,Graduate
1,1,1,9147,1,1,117,1,Basic,Basic,118.1,0,0,0,1,1,0,19,0,5,6,5,11.2,0,0,5,5,5,13.2,0,12.4,0.5,1.79,Graduate
2,44,1,8014,0,39,150,1,Secondary,Secondary,154,0,0,0,1,1,0,37,12,16,17,16,14.125,0,6,11,14,10,13,0,12.4,0.5,1.79,Graduate
1,1,1,9853,1,1,122,1,Basic,Basic,112.9,1,0,0,1,0,1,19,0,7,8,7,13.857143,0,0,7,8,6,13.666667,0,8.9,1.4,3.51,Graduate
1,44,1,171,1,39,150,1,Basic,Secondary,154.8,1,0,0,1,1,0,21,0,0,0,0,0,0,0,0,0,0,0,0,12.4,0.5,1.79,Graduate
1,44,1,9085,1,39,140,1,Higher,Higher,140,1,0,0,1,0,0,19,0,6,10,6,13,0,0,6,19,5,13,0,12.4,0.5,1.79,Graduate
1,18,2,9853,1,1,111,1,Basic,Basic,105.8,1,0,0,1,0,0,19,0,7,7,7,13.142857,0,0,7,8,7,12.857143,0,8.9,1.4,3.51,Graduate
1,1,1,9147,1,1,180,1,Basic,Basic,153.8,1,0,0,1,0,1,20,0,5,5,5,13.8,0,0,5,6,5,12,0,9.4,-0.8,-3.12,Graduate
1,17,4,9500,1,1,140,1,Secondary,Secondary,127.6,1,0,0,1,0,0,23,0,7,7,6,13.796667,0,0,8,11,7,13.775,0,12.4,0.5,1.79,Graduate
4,39,2,8014,0,1,160,1,Basic,Basic,115,0,0,0,1,0,1,41,0,6,8,6,11.333333,0,0,6,9,6,11.333333,0,10.8,1.4,1.74,Graduate
1,17,4,9500,1,1,137,1,Secondary,Basic,128.4,1,0,0,1,0,1,19,0,7,7,7,13.385714,0,0,8,8,8,15.925,0,13.9,-0.3,0.79,Graduate
1,17,1,9238,1,1,120,1,Basic,Secondary,113.4,1,0,0,1,0,1,20,0,6,10,5,11.857143,0,0,6,8,6,11.666667,0,12.7,3.7,-1.7,Graduate
1,1,1,9670,1,1,116,1,Higher,Higher,110.1,1,0,0,1,1,0,19,0,6,9,5,13.333333,0,0,6,6,5,13,0,12.4,0.5,1.79,Graduate
1,1,5,171,1,1,139,1,Basic,Higher,136.9,1,0,0,1,1,1,19,0,0,0,0,0,0,0,0,0,0,0,0,9.4,-0.8,-3.12,Graduate
1,1,1,9500,1,1,128,1,Secondary,Basic,125.6,1,0,0,1,1,0,18,0,7,7,7,12.444286,0,0,8,11,7,11.347143,0,12.4,0.5,1.79,Graduate
1,1,3,9070,1,1,127,1,Basic,Basic,141,1,0,0,1,1,1,19,0,6,6,6,15.166667,0,0,6,6,6,12.333333,0,12.4,0.5,1.79,Graduate
1,1,1,171,1,1,143,1,Higher,Basic,129.7,1,0,0,1,0,0,18,0,0,0,0,0,0,0,0,0,0,0,0,13.9,-0.3,0.79,Graduate
1,1,1,9773,1,1,136,1,Basic,Basic,126.2,0,0,0,1,0,0,19,0,6,6,6,13.166667,0,0,6,6,6,15,0,16.2,0.3,-0.92,Graduate
1,1,1,171,1,1,136,1,Basic,Basic,129,1,0,0,1,1,1,19,0,0,0,0,0,0,0,0,0,0,0,0,13.9,-0.3,0.79,Graduate
1,43,1,9130,1,1,140,1,Higher,Secondary,140,1,0,0,1,0,0,22,0,5,11,4,12.25,0,0,5,9,5,13.285714,0,12.7,3.7,-1.7,Graduate
1,1,3,9500,1,1,145,1,Basic,Basic,136.3,1,0,0,1,0,1,18,0,8,8,7,13.971429,0,0,8,8,7,13.971429,0,12.7,3.7,-1.7,Graduate
1,1,1,9773,1,1,133.1,1,Higher,Basic,127,0,0,0,1,1,0,20,0,6,6,6,14.333333,0,0,6,7,6,15,0,15.5,2.8,-4.06,Graduate
1,1,1,9254,1,1,129,1,Basic,Basic,118.5,1,0,0,1,0,0,18,0,6,6,6,10.666667,0,0,6,6,6,11.5,0,7.6,2.6,0.32,Graduate
1,16,1,9556,1,1,137,1,Basic,Basic,122.7,1,0,0,1,0,1,18,0,7,7,7,15.285714,0,0,8,8,8,16.075,0,12.4,0.5,1.79,Graduate
1,17,1,171,1,1,142,1,Basic,Basic,132.9,0,0,0,1,1,0,22,0,0,0,0,0,0,0,0,0,0,0,0,12.7,3.7,-1.7,Graduate
1,17,6,9238,1,1,138,1,Higher,Higher,123,1,0,0,1,0,0,19,0,6,11,5,10.8,0,0,6,12,5,11.333333,0,15.5,2.8,-4.06,Graduate
1,1,2,9500,1,1,140,1,Secondary,Secondary,131,1,0,0,1,0,1,18,0,8,8,8,13.88125,0,0,8,8,8,13.88125,0,9.4,-0.8,-3.12,Graduate
1,1,2,9147,1,1,132,1,Secondary,Basic,126.4,1,0,0,1,0,1,18,0,5,13,3,10.6,0,0,5,12,3,10.5,0,13.9,-0.3,0.79,Graduate
1,1,1,9500,1,1,144,1,Basic,Basic,150.5,0,0,0,1,0,0,20,0,7,7,6,13.916667,0,0,7,7,6,13.916667,0,7.6,2.6,0.32,Graduate
1,1,1,9773,1,1,154,1,Basic,Basic,150.2,0,0,0,1,0,1,18,0,6,6,6,14.5,0,0,6,6,6,14.666667,0,16.2,0.3,-0.92,Graduate
1,17,1,9238,1,1,133,1,Basic,Basic,125.3,1,0,0,1,0,1,18,0,6,6,6,11.333333,0,0,6,7,6,12.285714,0,15.5,2.8,-4.06,Graduate
1,17,3,9500,1,1,133,1,Basic,Basic,128.8,1,0,0,1,1,0,18,0,7,8,7,11.8375,0,0,8,9,8,12.48125,0,13.9,-0.3,0.79,Graduate
1,17,1,9254,1,1,102,1,Basic,Basic,102,0,0,0,1,0,0,19,0,6,8,5,11.8,0,0,6,8,5,11.6,0,10.8,1.4,1.74,Graduate
1,1,1,9238,1,1,121,1,Secondary,Secondary,118.9,1,0,0,1,0,1,19,0,6,8,5,11.666667,0,0,6,9,5,12.666667,0,12.4,0.5,1.79,Graduate
1,39,1,9254,1,1,150,1,Higher,Secondary,122.3,0,0,0,1,1,0,28,0,6,10,6,13,0,0,6,8,5,12.2,0,13.9,-0.3,0.79,Graduate
1,17,2,9773,1,1,131,1,Higher,Basic,132.8,1,0,0,1,1,0,19,0,6,7,6,14.428571,0,0,6,7,6,14.571429,0,13.9,-0.3,0.79,Graduate
1,17,1,9147,1,1,122,1,Secondary,Basic,117.8,1,0,0,1,0,0,20,0,5,10,5,13.5,0,0,5,8,5,12.333333,0,13.9,-0.3,0.79,Graduate
1,1,3,9500,1,1,142,1,Basic,Basic,137.3,1,0,0,1,0,1,22,0,7,7,6,13.9,0,0,7,7,6,13.9,0,7.6,2.6,0.32,Graduate
1,43,1,9130,1,1,140,1,Secondary,Higher,140,1,0,0,1,0,1,20,0,6,8,6,15.625,0,0,6,8,6,15.857143,0,13.9,-0.3,0.79,Graduate
1,44,1,9147,1,39,130,1,Basic,Secondary,130,0,0,0,1,0,1,20,4,7,8,7,13,0,2,5,5,5,13.4,0,11.1,0.6,2.02,Graduate
1,1,6,9500,1,1,135,1,Basic,Secondary,126.8,1,0,0,1,0,1,18,0,8,8,7,12.61,0,0,8,8,7,12.61,0,10.8,1.4,1.74,Graduate
1,1,4,9773,1,1,140,22,Secondary,Basic,130.5,1,0,0,1,0,0,20,0,6,6,6,12.333333,0,0,6,6,6,12,0,12.7,3.7,-1.7,Graduate
1,17,5,9500,1,1,143,1,Basic,Secondary,130.6,1,0,0,1,0,1,18,0,7,8,7,13.15,0,0,8,9,8,15.06875,0,13.9,-0.3,0.79,Graduate
1,1,2,9500,1,1,138,1,Higher,Higher,127.5,1,0,0,1,0,1,18,0,7,7,7,14.485714,0,0,8,9,8,14.588889,0,16.2,0.3,-0.92,Graduate
1,44,1,9070,1,39,140,1,Secondary,Basic,140,0,0,0,1,1,0,25,2,7,9,6,12.571429,0,5,9,9,9,12.555556,0,16.2,0.3,-0.92,Graduate
1,43,4,9500,1,6,134,1,Basic,Basic,129.8,1,0,0,1,0,0,20,0,7,7,6,14.85,0,0,7,7,6,14.85,0,7.6,2.6,0.32,Graduate
1,51,1,9238,1,39,140,1,Basic,Basic,129.1,1,0,0,1,0,1,20,6,11,11,11,12.818182,0,6,11,11,11,13.545455,0,12.4,0.5,1.79,Graduate
1,1,1,9147,1,1,133,1,Basic,Basic,147,0,0,0,1,0,1,18,0,5,7,4,13,0,0,5,8,3,12.333333,0,9.4,-0.8,-3.12,Graduate
1,1,1,9500,1,1,130,1,Basic,Basic,117.8,1,0,0,1,0,1,19,0,8,8,7,12.357143,0,0,8,8,7,12.357143,0,12.7,3.7,-1.7,Graduate
1,1,1,171,1,1,142,1,Secondary,Secondary,133.3,1,0,0,1,0,0,19,0,0,0,0,0,0,0,0,0,0,0,0,10.8,1.4,1.74,Graduate
1,17,1,9254,1,1,115,1,Secondary,Secondary,108.7,1,0,0,1,0,1,18,0,6,9,5,11.4,0,0,6,6,6,11.333333,0,12.4,0.5,1.79,Graduate
1,1,1,9147,1,1,150,103,Basic,Basic,134.6,0,0,0,1,1,0,20,0,5,5,5,13.6,0,0,5,7,5,13,0,9.4,-0.8,-3.12,Graduate
1,1,1,9085,1,1,140,1,Higher,Higher,146.4,0,0,0,1,0,0,18,0,5,5,5,12.6,0,0,5,7,5,11.6,0,7.6,2.6,0.32,Graduate
1,17,6,9670,1,1,113,1,Higher,Secondary,112.3,0,0,0,1,0,0,20,0,6,9,6,12.375,0,0,6,7,6,13.142857,0,11.1,0.6,2.02,Graduate
1,17,1,9500,1,1,128,1,Basic,Secondary,117.2,1,0,0,1,0,0,20,0,7,9,6,11.605,0,0,8,10,7,12.4125,0,16.2,0.3,-0.92,Graduate
1,17,1,9085,1,1,133,1,Basic,Secondary,127.1,1,0,0,1,0,0,18,0,6,7,6,15,0,0,6,7,6,16.428571,0,11.1,0.6,2.02,Graduate
1,1,1,9500,1,1,133,1,Basic,Basic,121.8,0,0,0,1,1,1,18,0,8,8,8,12.93875,0,0,8,8,8,12.93875,0,9.4,-0.8,-3.12,Graduate
1,17,5,9670,1,1,125,1,Secondary,Basic,119.4,1,0,0,1,0,0,18,0,6,10,4,13.6,0,0,6,7,5,12.666667,0,11.1,0.6,2.02,Graduate
5,39,1,9500,1,3,140,1,Basic,Basic,160,0,0,0,1,0,0,27,0,8,8,7,15.942857,0,0,8,8,7,15.942857,0,12.7,3.7,-1.7,Graduate
4,39,1,8014,0,19,133.1,1,Basic,Basic,134.5,0,0,0,1,0,1,47,0,6,8,5,12.2,0,0,6,10,4,11.25,0,12.4,0.5,1.79,Graduate
1,1,1,9773,1,1,121,1,Basic,Secondary,117.9,1,0,0,1,0,0,19,0,6,7,6,12.833333,0,0,6,7,6,11.666667,0,11.1,0.6,2.02,Graduate
1,1,6,9500,1,1,140,1,Higher,Secondary,131.5,1,0,0,1,0,0,19,0,8,8,8,13.25375,0,0,8,8,8,13.25375,0,9.4,-0.8,-3.12,Graduate
1,17,1,9254,1,1,128,1,Basic,Secondary,120.7,1,0,1,1,0,0,18,0,6,8,6,11.666667,0,0,6,10,4,11.5,0,13.9,-0.3,0.79,Graduate
1,44,1,9085,1,39,150,1,Basic,Basic,150,1,0,0,1,0,0,23,1,6,14,5,14.428571,0,1,6,7,6,13.428571,0,16.2,0.3,-0.92,Graduate
1,1,1,9500,1,1,136,1,Basic,Basic,119.3,1,0,0,1,0,1,18,0,8,8,7,13.214286,0,0,8,8,7,13.214286,0,12.7,3.7,-1.7,Graduate
1,17,1,9670,1,1,133.1,1,Secondary,Basic,150,0,0,0,1,1,0,21,0,6,8,6,14.75,0,0,6,9,5,14.333333,0,11.1,0.6,2.02,Graduate
1,1,2,9254,1,1,136,1,Basic,Basic,125.2,1,0,0,1,0,1,18,0,6,8,6,12.285714,0,0,6,9,5,12.4,0,8.9,1.4,3.51,Graduate
1,1,1,9500,1,1,149,1,Basic,Secondary,134.8,0,0,0,1,0,0,18,0,8,8,8,14.445,0,0,8,8,8,14.445,0,9.4,-0.8,-3.12,Graduate
1,1,1,171,1,1,141,1,Secondary,Basic,141.4,1,0,0,1,0,1,18,0,0,0,0,0,0,0,0,0,0,0,0,13.9,-0.3,0.79,Graduate
1,1,1,171,1,1,149,1,Basic,Basic,158.1,1,0,0,1,1,1,20,0,0,0,0,0,0,0,0,0,0,0,0,10.8,1.4,1.74,Graduate
1,1,1,9070,1,1,136,1,Secondary,Basic,132.2,0,0,1,1,0,0,19,0,6,6,6,13.833333,0,0,6,8,6,13.875,0,10.8,1.4,1.74,Graduate
1,1,1,9670,1,1,136,1,Basic,Secondary,123.4,1,0,0,1,0,1,18,0,6,10,6,13.25,0,0,6,13,5,14.142857,0,11.1,0.6,2.02,Graduate
1,1,1,8014,0,1,123,1,Unknown,Basic,121.3,1,0,0,1,0,0,25,0,6,6,6,12.833333,0,0,6,6,6,12.833333,0,7.6,2.6,0.32,Graduate
1,17,4,9500,1,1,141,1,Basic,Basic,126.3,1,0,0,1,0,0,18,0,8,8,7,13.297143,0,0,8,8,7,13.297143,0,10.8,1.4,1.74,Graduate
1,43,1,9500,1,1,136,1,Higher,Higher,100,0,0,0,1,0,0,18,0,7,8,7,13.6125,0,0,8,8,8,14.575,0,13.9,-0.3,0.79,Graduate
1,1,2,9085,1,1,130,1,Secondary,Basic,122.3,1,0,0,1,0,0,18,0,5,10,5,14.333333,2,0,5,8,5,13,1,9.4,-0.8,-3.12,Graduate
1,1,1,9147,1,1,140,1,Basic,Basic,124.3,1,0,0,1,0,1,18,0,5,8,4,10.75,0,0,5,5,5,13,0,12.4,0.5,1.79,Graduate
1,1,3,9070,1,1,139,1,Secondary,Basic,142.2,1,0,0,1,0,1,19,0,6,6,6,12.833333,0,0,6,6,6,12.833333,0,9.4,-0.8,-3.12,Graduate
1,1,1,9147,1,1,153,1,Secondary,Basic,146.7,0,0,0,1,0,0,18,0,5,5,5,16.2,0,0,5,5,5,16.4,0,11.1,0.6,2.02,Graduate
1,7,1,9147,1,3,130,1,Basic,Basic,130,0,0,0,1,0,0,21,4,9,9,9,10.888889,0,3,10,18,10,11.615385,0,10.8,1.4,1.74,Graduate
1,1,1,9500,1,1,138,1,Basic,Basic,126.8,0,0,0,1,1,1,19,0,7,9,7,14.244444,0,0,8,12,8,12.233333,0,15.5,2.8,-4.06,Graduate
1,39,1,9670,1,1,133.1,1,Secondary,Basic,140,0,0,0,1,1,1,25,0,6,8,6,12.285714,0,0,6,6,6,13,0,15.5,2.8,-4.06,Graduate
1,17,1,9003,1,1,133,1,Basic,Basic,125.3,1,0,0,1,0,0,21,12,18,22,18,11.888889,1,11,13,13,13,11.461538,0,15.5,2.8,-4.06,Graduate
1,44,1,9003,1,39,160,1,Basic,Basic,160,1,0,0,1,0,0,20,0,6,7,6,13.571429,0,0,6,9,6,12.714286,0,12.4,0.5,1.79,Graduate
1,17,2,9238,1,1,130,1,Basic,Basic,127.6,1,0,0,1,0,0,18,0,6,6,6,11.666667,0,0,6,8,5,13.2,0,11.1,0.6,2.02,Graduate
1,44,1,9070,1,1,140,1,Secondary,Secondary,144.3,1,0,0,1,0,0,19,2,7,7,7,13,0,5,9,9,9,13.222222,0,12.4,0.5,1.79,Graduate
1,44,1,9070,1,39,120,1,Higher,Basic,120,0,0,0,1,1,0,21,2,7,10,6,13.428571,0,5,9,9,8,13.125,0,16.2,0.3,-0.92,Graduate
1,1,2,9147,1,1,133,1,Higher,Basic,120.4,1,0,0,1,0,0,22,0,5,5,5,14.8,0,0,5,5,5,15.8,0,8.9,1.4,3.51,Graduate
1,17,2,8014,0,1,134,1,Secondary,Basic,126,1,0,0,1,1,0,22,0,6,7,6,12.666667,0,0,6,6,6,12.166667,0,7.6,2.6,0.32,Graduate
1,1,1,9500,1,1,148,1,Higher,Higher,137.3,1,0,0,1,0,0,19,0,7,7,6,14.266667,0,0,7,7,6,14.266667,0,7.6,2.6,0.32,Graduate
1,39,1,9070,1,1,130,1,Secondary,Basic,110,1,0,0,1,0,0,24,0,6,6,6,15.166667,0,0,6,6,2,15.5,0,15.5,2.8,-4.06,Graduate
1,1,1,9500,1,1,150,1,Basic,Basic,136.5,1,0,0,1,0,1,18,0,8,8,8,14.50125,0,0,8,8,8,14.50125,0,9.4,-0.8,-3.12,Graduate
1,53,1,9085,1,42,150,1,Secondary,Basic,150.3,1,0,0,1,1,1,21,7,11,15,9,14.222222,0,4,9,15,7,13.75,0,8.9,1.4,3.51,Graduate
1,17,2,9773,1,1,132,1,Basic,Secondary,141.8,1,0,0,1,1,0,20,0,6,6,6,11.833333,0,0,6,6,6,12.166667,0,12.7,3.7,-1.7,Graduate
4,39,1,9500,1,19,133.1,1,Basic,Secondary,120,0,0,0,1,0,1,35,0,8,9,8,13.63,1,0,8,9,8,13.63,1,9.4,-0.8,-3.12,Graduate
1,1,1,171,1,1,141,1,Secondary,Basic,136.8,1,0,0,1,0,1,18,0,0,0,0,0,0,0,0,0,0,0,0,13.9,-0.3,0.79,Graduate
1,51,1,9070,1,1,130,1,Higher,Secondary,122.2,0,0,1,1,0,0,20,4,10,12,10,13,0,5,11,11,11,12.272727,0,11.1,0.6,2.02,Graduate
1,1,1,9500,1,1,150,1,Secondary,Secondary,155.6,0,0,0,1,0,0,19,0,7,7,7,14.3,0,0,8,9,8,14.055556,0,16.2,0.3,-0.92,Graduate
1,1,3,9254,1,1,128,1,Basic,Secondary,121.7,1,0,0,1,0,1,18,0,6,6,6,12.666667,0,0,6,6,6,12.5,0,12.4,0.5,1.79,Graduate
1,39,1,9500,1,1,123,1,Basic,Secondary,140.8,0,0,0,1,0,0,25,0,8,8,7,12.084286,0,0,8,8,7,12.084286,0,10.8,1.4,1.74,Graduate
1,1,2,9773,1,1,138,1,Basic,Secondary,133.5,1,0,0,1,0,0,18,0,6,6,6,12.666667,0,0,6,6,6,13.666667,0,12.7,3.7,-1.7,Graduate
1,1,1,9991,0,1,145,1,Higher,Basic,127.5,1,0,0,1,1,0,22,0,5,9,5,12.428571,1,0,5,7,5,11.8,0,7.6,2.6,0.32,Graduate
1,1,2,9773,1,1,130,1,Basic,Basic,126.9,1,0,0,1,1,1,18,0,6,6,6,14,0,0,6,6,6,14.166667,0,9.4,-0.8,-3.12,Graduate
1,1,1,9085,1,1,123,1,Basic,Basic,124.1,1,0,0,1,0,1,20,0,5,13,5,14,2,0,5,10,3,12,1,9.4,-0.8,-3.12,Graduate
1,1,2,9500,1,1,134,1,Basic,Basic,131,1,0,0,1,1,0,18,0,7,9,7,14.594444,0,0,8,10,8,13.472,0,15.5,2.8,-4.06,Graduate
1,1,6,9147,1,1,127,1,Secondary,Basic,120,1,0,0,1,1,0,19,0,5,6,5,12.6,0,0,5,8,3,12.666667,0,8.9,1.4,3.51,Graduate
1,1,4,9500,1,1,133,1,Basic,Basic,127.3,1,0,0,1,0,0,18,0,8,8,7,12.628571,0,0,8,8,7,12.628571,0,12.7,3.7,-1.7,Graduate
1,1,1,9773,1,1,170,1,Secondary,Basic,155,0,0,0,1,1,1,18,0,6,6,6,15.5,0,0,6,6,6,14.166667,0,11.1,0.6,2.02,Graduate
1,1,1,171,1,1,149,1,Secondary,Secondary,156,1,0,0,1,0,0,18,0,0,0,0,0,0,0,0,0,0,0,0,10.8,1.4,1.74,Graduate
1,1,1,9500,1,1,149,1,Basic,Basic,136,0,0,0,1,0,1,18,0,7,7,6,12.916667,0,0,7,7,6,12.916667,0,7.6,2.6,0.32,Graduate
1,51,1,9670,1,1,140,1,Secondary,Higher,126.6,0,0,0,1,1,0,19,2,6,7,6,14.428571,0,1,7,8,7,14.375,0,11.1,0.6,2.02,Graduate
1,1,3,9070,1,1,136,1,Basic,Basic,125.2,1,0,0,1,0,1,18,0,6,6,6,14,0,0,6,8,6,13.625,0,10.8,1.4,1.74,Graduate
1,42,1,9500,1,1,160,1,Basic,Basic,161,1,0,0,1,0,1,22,0,8,8,7,13.08,0,0,8,8,7,13.08,0,10.8,1.4,1.74,Graduate
1,1,4,9500,1,1,133.1,1,Basic,Basic,119.6,1,0,0,1,0,1,19,0,7,7,6,12.808333,0,0,8,11,7,12.825714,0,12.4,0.5,1.79,Graduate
1,1,4,9500,1,1,123,1,Basic,Basic,116.7,1,0,0,1,0,0,20,0,7,7,7,12.485714,0,0,8,12,8,12.9375,0,16.2,0.3,-0.92,Graduate
1,39,1,8014,0,15,170,1,Unknown,Secondary,101,0,0,0,1,0,0,32,0,6,9,4,12,0,0,6,12,4,11.5,0,7.6,2.6,0.32,Graduate
1,18,1,9670,1,1,128,1,Basic,Higher,120,1,0,0,1,0,0,19,0,6,8,6,14.125,0,0,6,10,5,14.5,0,11.1,0.6,2.02,Graduate
2,7,1,9070,1,43,140,1,Basic,Secondary,140,0,0,0,1,0,0,33,0,6,7,6,15,0,0,6,8,3,11,0,11.1,0.6,2.02,Graduate
1,1,1,9670,1,1,142,1,Secondary,Basic,128,0,0,0,1,0,1,18,0,6,8,6,14,0,0,6,7,6,13.285714,0,11.1,0.6,2.02,Graduate
1,1,1,9070,1,1,132,1,Secondary,Secondary,133.8,1,0,0,1,0,1,20,0,6,6,6,13.833333,0,0,6,6,6,13.5,0,16.2,0.3,-0.92,Graduate
1,1,6,9773,1,1,116,1,Basic,Secondary,110.1,1,0,0,1,0,1,19,0,6,8,6,12.666667,0,0,6,10,5,12,0,12.4,0.5,1.79,Graduate
1,1,2,9773,1,1,146,1,Higher,Secondary,149.2,1,0,0,1,0,0,18,0,6,11,4,12.25,0,0,6,10,3,11.666667,0,9.4,-0.8,-3.12,Graduate
1,1,1,9773,1,1,150,1,Basic,Basic,131.1,1,0,0,1,1,0,19,0,6,6,6,11.666667,0,0,6,10,3,12.666667,0,7.6,2.6,0.32,Graduate
1,1,2,9773,1,1,130,1,Secondary,Secondary,126.2,1,0,0,1,0,0,18,0,6,6,6,11.666667,0,0,6,6,5,12.2,0,12.7,3.7,-1.7,Graduate
1,1,6,9500,1,1,138,1,Basic,Basic,127.2,1,0,0,1,0,1,18,0,7,8,7,13.26,0,0,8,8,8,14.28625,0,15.5,2.8,-4.06,Graduate
1,17,6,9500,1,1,132,1,Basic,Basic,132.4,1,0,0,1,0,1,22,0,7,8,6,13.516667,0,0,8,9,7,13.771429,0,11.1,0.6,2.02,Graduate
1,1,1,9853,1,1,125,1,Basic,Basic,117,0,0,0,1,0,1,19,0,6,7,6,13.428571,0,0,6,6,6,13.166667,0,15.5,2.8,-4.06,Graduate
1,43,1,9254,1,1,112,1,Basic,Basic,108.5,0,0,0,1,1,0,21,0,6,6,6,12.666667,0,0,6,7,5,11.4,0,9.4,-0.8,-3.12,Graduate
1,1,4,171,1,1,137,1,Secondary,Basic,141.2,1,0,0,1,1,0,19,0,0,0,0,0,0,0,0,0,0,0,0,11.1,0.6,2.02,Graduate
1,44,1,9003,1,39,160,1,Secondary,Basic,160,1,0,0,1,1,1,20,0,6,9,6,13.444444,0,0,6,9,5,12.6,0,13.9,-0.3,0.79,Graduate
1,17,1,9238,1,1,134,1,Basic,Basic,124.2,0,0,0,1,0,1,21,0,6,11,4,11.25,0,0,6,12,4,11.4,0,15.5,2.8,-4.06,Graduate
1,44,1,9238,1,39,140,1,Basic,Basic,143,0,0,0,1,0,0,19,3,6,6,6,13.333333,0,2,6,6,6,14.666667,0,13.9,-0.3,0.79,Graduate
1,17,1,9085,1,1,128,1,Higher,Basic,123.3,1,0,0,1,0,1,20,0,6,6,6,14.833333,0,0,6,8,6,12.142857,0,8.9,1.4,3.51,Graduate
1,15,1,9254,1,1,160,1,Secondary,Higher,142.5,1,0,0,0,1,0,19,0,6,6,6,14,0,0,6,6,6,13.666667,0,13.9,-0.3,0.79,Graduate
1,17,1,9085,1,1,131,1,Basic,Basic,125.4,1,0,0,1,0,0,20,0,6,13,6,15.692308,0,0,6,13,5,14.428571,0,15.5,2.8,-4.06,Graduate
1,1,3,9500,1,1,128,1,Basic,Basic,118.6,1,0,0,1,0,1,19,0,7,9,6,11.814286,0,0,8,8,7,13.542857,0,13.9,-0.3,0.79,Graduate
1,1,1,9238,1,1,135,1,Basic,Basic,124.5,0,0,0,1,0,1,18,0,6,11,5,11.142857,0,0,6,8,6,12.285714,0,16.2,0.3,-0.92,Graduate
1,39,1,9991,0,1,130,1,Basic,Basic,120.2,1,0,0,1,1,0,30,0,5,7,5,11,0,0,5,5,5,11.6,0,7.6,2.6,0.32,Graduate
1,1,3,9254,1,1,121,1,Basic,Basic,116.8,1,0,0,1,0,0,21,0,6,8,6,11.333333,0,0,6,8,4,12.25,0,11.1,0.6,2.02,Graduate
2,43,1,9853,1,1,110,1,Basic,Basic,100,0,0,0,1,1,0,40,0,2,4,1,16,0,0,4,5,4,15.5,0,13.9,-0.3,0.79,Graduate
1,17,2,9773,1,1,130,1,Higher,Secondary,126.2,1,0,0,1,0,0,20,0,6,6,6,14.333333,0,0,6,6,6,15.5,0,12.4,0.5,1.79,Graduate
1,1,1,9500,1,1,125,1,Secondary,Secondary,117,0,0,0,1,0,1,21,0,8,8,8,13.2575,0,0,8,8,8,13.2575,0,9.4,-0.8,-3.12,Graduate
1,1,1,9085,1,1,133,1,Secondary,Basic,143.2,0,0,0,1,0,0,19,0,5,7,5,14.4,0,0,5,6,5,13.2,0,7.6,2.6,0.32,Graduate
1,1,1,9500,1,1,138,1,Secondary,Basic,132.5,1,0,0,1,0,1,19,0,8,8,7,14.36,0,0,8,8,7,14.36,0,10.8,1.4,1.74,Graduate
1,1,1,9853,1,1,131,1,Basic,Basic,127.9,1,0,0,1,0,1,18,0,7,7,7,14.857143,0,0,7,7,7,15.142857,0,13.9,-0.3,0.79,Graduate
1,39,1,9773,1,19,100,1,Basic,Basic,128,1,0,0,1,1,0,28,0,6,7,6,13.166667,0,0,6,6,6,13.666667,0,7.6,2.6,0.32,Graduate
1,1,1,8014,0,1,115,1,Basic,Basic,115,1,0,0,1,0,0,28,0,6,8,5,12.8,0,0,6,8,5,11,0,9.4,-0.8,-3.12,Graduate
1,1,4,9500,1,1,145,1,Higher,Basic,130,1,0,0,1,0,0,18,0,8,8,8,13.76125,0,0,8,8,8,13.76125,0,9.4,-0.8,-3.12,Graduate
1,1,3,9085,1,1,138,1,Secondary,Secondary,128.7,1,0,0,1,0,0,18,0,6,7,6,14.666667,0,0,6,12,6,13.833333,0,8.9,1.4,3.51,Graduate
1,1,1,9500,1,1,130,1,Basic,Basic,117.8,1,0,0,1,1,0,19,0,8,8,7,15.885714,0,0,8,8,7,15.885714,0,10.8,1.4,1.74,Graduate
1,1,1,9853,1,1,130,1,Basic,Secondary,133.2,1,0,0,1,0,0,19,0,6,6,6,14.166667,0,0,6,7,6,13.666667,0,7.6,2.6,0.32,Graduate
1,1,4,9500,1,1,140,1,Secondary,Basic,127,1,0,0,1,0,0,19,0,8,8,7,13.442857,0,0,8,8,7,13.442857,0,12.7,3.7,-1.7,Graduate
1,1,2,9500,1,1,133.1,1,Basic,Basic,125.5,1,0,0,1,0,1,21,0,7,9,7,13.2,0,0,8,9,7,13.2575,0,15.5,2.8,-4.06,Graduate
1,1,1,9147,1,1,148,1,Basic,Basic,133,1,0,0,1,0,0,18,0,5,10,4,12,0,0,5,9,4,12.8,0,13.9,-0.3,0.79,Graduate
1,1,5,9500,1,1,129,1,Basic,Basic,128.8,1,0,0,1,0,0,19,0,7,7,6,12.666667,0,0,7,7,6,12.666667,0,7.6,2.6,0.32,Graduate
1,1,1,9773,1,1,122,1,Basic,Basic,126.6,1,0,0,1,0,0,18,0,6,6,6,12.833333,0,0,6,6,6,13.833333,0,8.9,1.4,3.51,Graduate
2,39,1,9991,0,1,110,1,Basic,Basic,150,0,0,0,1,1,0,49,0,5,6,5,12.2,0,0,5,9,5,11.8,0,15.5,2.8,-4.06,Graduate
1,1,1,9773,1,1,125,1,Basic,Basic,115.9,0,0,0,1,0,0,19,0,6,13,4,11.75,0,0,6,10,4,11,0,10.8,1.4,1.74,Graduate
1,1,5,9070,1,1,125,1,Higher,Higher,140.8,1,0,0,1,1,0,22,0,6,6,6,14.666667,0,0,6,6,6,15,0,9.4,-0.8,-3.12,Graduate
1,17,4,9853,1,1,122,1,Basic,Basic,118.9,1,0,0,1,0,0,20,0,6,7,6,12.666667,0,0,6,7,5,13,0,7.6,2.6,0.32,Graduate
1,17,2,9254,1,1,108,1,Basic,Basic,108,1,0,0,1,0,1,20,0,6,10,4,11.6,0,0,6,10,4,11.75,0,12.7,3.7,-1.7,Graduate
1,1,1,9254,1,1,144,1,Basic,Basic,142.6,1,0,0,1,0,1,18,0,6,7,6,14.166667,0,0,6,10,4,14,0,15.5,2.8,-4.06,Graduate
1,1,3,9500,1,1,154,1,Secondary,Basic,134.8,1,0,0,1,0,0,19,0,7,7,6,13.533333,0,0,7,7,6,13.533333,0,7.6,2.6,0.32,Graduate
1,1,4,9773,1,1,132,11,Secondary,Secondary,129.9,1,0,0,1,0,0,18,0,6,6,6,12.666667,0,0,6,8,5,14.4,0,7.6,2.6,0.32,Graduate
1,39,1,9670,1,1,133.1,1,Basic,Basic,118,0,0,0,1,1,0,27,0,6,7,6,14,0,0,6,7,6,14.714286,0,8.9,1.4,3.51,Graduate
1,17,1,9670,1,1,123,1,Basic,Basic,114.6,0,0,0,1,0,0,18,0,5,5,4,11,0,0,5,5,4,11,0,9.4,-0.8,-3.12,Graduate
1,1,1,9773,1,1,126,1,Basic,Basic,119,0,0,0,1,0,1,18,0,6,6,6,12.166667,0,0,6,7,6,12.142857,0,15.5,2.8,-4.06,Graduate
1,17,4,9853,1,1,121,1,Basic,Basic,113.7,1,0,0,1,0,1,20,0,6,8,5,13.4,0,0,6,9,5,13.666667,0,9.4,-0.8,-3.12,Graduate
1,39,1,9500,1,19,133.1,1,Basic,Basic,133,0,0,0,1,0,0,24,0,7,9,6,12.585714,0,0,8,9,7,13.442857,0,13.9,-0.3,0.79,Graduate
1,17,5,9500,1,1,144,1,Basic,Basic,130.7,1,0,0,1,0,1,18,0,7,8,7,14.85,0,0,8,9,8,15.611111,0,13.9,-0.3,0.79,Graduate
1,17,1,9254,1,1,148,1,Secondary,Secondary,145.2,0,0,0,1,1,0,20,0,6,7,6,13.714286,0,0,6,8,6,14.714286,0,16.2,0.3,-0.92,Graduate
1,16,3,9085,1,1,130,1,Basic,Basic,119.5,1,0,0,1,0,1,18,0,6,14,6,14.333333,0,0,6,9,6,12,0,15.5,2.8,-4.06,Graduate
1,1,1,9500,1,1,127,1,Higher,Secondary,119.3,1,0,0,1,0,0,20,0,7,7,7,14.105714,0,0,8,8,8,13.6625,0,11.1,0.6,2.02,Graduate
1,1,1,171,1,1,137,1,Basic,Basic,134.6,1,0,0,1,0,1,19,0,0,0,0,0,0,0,0,0,0,0,0,10.8,1.4,1.74,Graduate
4,43,1,8014,0,1,140,1,Basic,Basic,126,0,0,0,1,0,1,39,3,9,9,9,13.111111,0,2,7,10,7,11.714286,0,12.7,3.7,-1.7,Graduate
1,1,1,9070,1,1,141,1,Basic,Basic,126.7,1,0,1,1,0,1,20,0,6,9,6,13.333333,0,0,6,10,6,14.666667,0,12.7,3.7,-1.7,Graduate
1,1,4,9670,1,1,128,1,Basic,Basic,121,1,0,0,1,0,0,19,0,6,8,6,13.5,0,0,6,9,6,13.571429,0,11.1,0.6,2.02,Graduate
2,15,1,9773,1,1,133.1,41,Basic,Basic,100,0,0,0,1,0,0,59,0,6,8,6,12.166667,0,0,6,7,4,11.75,0,11.1,0.6,2.02,Graduate
1,39,1,9991,0,1,150,1,Basic,Basic,127,0,0,0,1,1,0,34,0,5,5,5,15.8,0,0,5,5,5,16.8,0,8.9,1.4,3.51,Graduate
1,43,1,9500,1,1,157,1,Basic,Higher,141.4,0,0,0,1,0,0,21,3,7,8,7,13.3875,0,2,8,8,8,15.9,0,13.9,-0.3,0.79,Graduate
1,1,6,9773,1,1,136,1,Basic,Basic,132.9,1,0,0,1,1,0,19,0,6,10,4,13.25,0,0,6,13,5,11.8,0,7.6,2.6,0.32,Graduate
1,43,1,9500,1,1,120,1,Secondary,Secondary,112,1,0,0,1,0,1,19,0,8,15,7,11.571429,0,0,8,15,7,11.571429,0,12.7,3.7,-1.7,Graduate
1,1,1,9853,1,1,152,1,Basic,Basic,154.1,0,0,1,1,0,1,18,0,6,6,6,13.333333,0,0,6,7,6,12.571429,0,12.7,3.7,-1.7,Graduate
1,1,1,9500,1,1,142,1,Basic,Basic,128.4,1,0,0,1,0,1,18,0,7,9,7,13.3,0,0,8,8,8,14.345,0,15.5,2.8,-4.06,Graduate
1,17,1,9670,1,1,121,1,Basic,Basic,114.4,0,0,0,1,0,0,19,0,6,10,5,11.5,0,0,6,9,4,14.6,0,11.1,0.6,2.02,Graduate
1,1,6,9500,1,1,130,1,Basic,Basic,125.1,1,0,0,1,0,0,18,0,7,11,7,13.37,0,0,8,13,7,12.833333,0,15.5,2.8,-4.06,Graduate
1,1,1,9147,1,1,122,1,Basic,Basic,120.6,1,0,0,1,0,1,19,0,5,5,5,12.8,0,0,5,8,5,11.6,0,9.4,-0.8,-3.12,Graduate
1,17,1,9238,1,1,131,1,Basic,Basic,121.9,0,0,0,1,0,1,19,0,6,8,6,13.75,0,0,6,7,6,11.857143,0,16.2,0.3,-0.92,Graduate
1,1,2,9254,1,1,121,1,Basic,Basic,124.2,1,0,0,1,0,1,18,0,6,8,6,10.571429,0,0,6,9,5,11.4,0,16.2,0.3,-0.92,Graduate
1,18,1,9130,1,1,135,1,Basic,Basic,121.7,1,0,0,1,0,1,18,0,5,7,4,11.5,0,0,5,5,5,12.4,0,10.8,1.4,1.74,Graduate
2,39,2,9254,1,19,133.1,1,Basic,Basic,123.5,0,0,0,1,1,0,39,0,6,6,6,13.5,0,0,6,6,6,13.333333,0,12.4,0.5,1.79,Graduate
1,18,1,9670,1,1,133,1,Secondary,Secondary,121.5,1,0,0,1,0,1,19,0,6,7,6,13,0,0,6,6,6,14.333333,0,12.4,0.5,1.79,Graduate
1,1,1,9085,1,1,131,1,Basic,Basic,137,0,0,0,1,0,0,18,0,5,5,5,14,0,0,5,6,5,15.4,0,7.6,2.6,0.32,Graduate
1,43,1,9238,1,1,110,1,Secondary,Secondary,112.5,1,0,0,1,0,0,20,8,10,14,9,12.333333,0,3,7,10,7,11.777778,0,7.6,2.6,0.32,Graduate
1,17,2,8014,0,1,120,1,Basic,Secondary,114.8,1,0,0,1,0,0,19,0,6,8,4,10.5,0,0,6,8,4,11.25,0,10.8,1.4,1.74,Graduate
2,39,1,9991,0,1,120,1,Basic,Basic,156,1,0,0,1,1,0,33,0,5,5,5,14.2,0,0,5,6,5,13.833333,0,10.8,1.4,1.74,Graduate
1,1,2,9254,1,1,131,1,Higher,Higher,126.1,1,0,0,1,0,0,18,0,6,8,6,12.142857,0,0,6,6,6,11.166667,0,8.9,1.4,3.51,Graduate
1,1,3,9070,1,1,129,1,Higher,Higher,124.8,1,0,0,1,0,0,21,0,6,6,6,14.5,0,0,6,7,5,12,0,12.4,0.5,1.79,Graduate
1,1,1,9773,1,1,138,1,Secondary,Basic,131.7,1,0,0,1,1,0,18,0,6,6,6,12.833333,0,0,6,7,6,13.285714,0,15.5,2.8,-4.06,Graduate
1,1,1,9670,1,1,141,1,Basic,Basic,130.5,0,0,0,1,1,0,19,0,6,8,6,14.25,0,0,6,7,6,13.857143,0,11.1,0.6,2.02,Graduate
1,1,4,9670,1,1,125,1,Secondary,Basic,114.9,1,0,0,1,0,1,19,0,6,8,6,13.375,0,0,6,7,6,12.285714,0,11.1,0.6,2.02,Graduate
1,1,1,9085,1,1,148,1,Basic,Higher,136.5,0,0,0,1,0,0,19,0,6,13,6,15.307692,0,0,6,9,6,14,0,15.5,2.8,-4.06,Graduate
1,17,2,9500,1,1,141,1,Basic,Secondary,127.3,1,0,0,1,0,1,19,0,7,7,6,13.8,0,0,7,7,6,13.8,0,7.6,2.6,0.32,Graduate
4,39,1,9670,1,1,100,1,Basic,Basic,120,0,0,1,1,0,1,39,0,5,6,5,10.6,0,0,5,7,4,10.75,0,9.4,-0.8,-3.12,Graduate
1,44,1,9085,1,39,150,1,Basic,Basic,150,1,0,0,1,1,0,20,1,6,11,6,13.8,0,1,6,7,6,13.142857,0,16.2,0.3,-0.92,Graduate
2,39,1,9670,1,1,150,1,Basic,Basic,135.6,0,0,0,1,0,1,43,0,6,8,5,11,0,0,6,9,5,13,0,12.4,0.5,1.79,Graduate
1,1,2,9238,1,1,136,1,Secondary,Basic,135.7,1,0,0,1,0,0,19,0,6,8,6,14.375,0,0,6,8,6,14.75,0,7.6,2.6,0.32,Graduate
1,17,1,9500,1,1,160,1,Basic,Secondary,153,1,0,0,1,0,0,18,0,7,7,6,13.116667,0,0,7,7,6,13.116667,0,7.6,2.6,0.32,Graduate
1,1,1,9238,1,1,124,1,Unknown,Unknown,129.3,0,0,0,1,0,0,19,0,6,8,6,11.5,0,0,6,7,6,11.166667,0,7.6,2.6,0.32,Graduate
1,1,1,9500,1,1,136,1,Secondary,Basic,136.4,0,0,0,1,0,1,19,0,7,8,7,12.8375,0,0,8,8,8,15.5,0,13.9,-0.3,0.79,Graduate
1,17,1,9147,1,1,124,1,Basic,Basic,126.8,1,0,0,1,0,0,20,0,5,8,5,12.333333,0,0,5,7,5,12.2,0,15.5,2.8,-4.06,Graduate
1,1,1,9130,1,1,132,1,Higher,Secondary,121.9,1,0,0,1,0,0,18,0,6,8,6,14.5,0,0,6,9,6,12.857143,0,13.9,-0.3,0.79,Graduate
1,53,1,9085,1,42,160,1,Secondary,Basic,155.7,1,0,0,1,0,0,27,7,12,17,11,14.727273,0,4,9,10,7,14.142857,0,8.9,1.4,3.51,Graduate
1,15,1,9670,1,1,133.1,41,Secondary,Secondary,100,0,0,0,1,0,0,21,2,7,9,7,14.666667,0,1,6,8,6,14,0,11.1,0.6,2.02,Graduate
1,1,1,9773,1,1,120,1,Basic,Basic,126.7,1,0,0,1,1,0,20,0,6,9,5,12.6,0,0,6,11,4,11.5,0,7.6,2.6,0.32,Graduate
1,1,6,9500,1,1,144,1,Basic,Basic,130.5,1,0,0,1,0,0,18,0,8,12,7,11.971429,0,0,8,12,7,11.971429,0,12.7,3.7,-1.7,Graduate
1,1,1,9085,1,1,119,1,Higher,Secondary,113.1,1,0,0,1,0,0,21,0,5,6,5,12.2,0,0,5,5,5,13.2,0,10.8,1.4,1.74,Graduate
1,17,1,9070,1,1,135,1,Basic,Basic,145.9,0,0,0,1,0,1,18,0,6,6,6,12.666667,0,0,6,6,6,12.166667,0,16.2,0.3,-0.92,Graduate
1,1,1,9556,1,1,118,1,Basic,Basic,116.3,1,0,0,1,0,1,20,0,7,10,7,11.888889,0,0,8,10,8,11.95625,0,12.7,3.7,-1.7,Graduate
1,1,1,9238,1,1,143,1,Basic,Unknown,133.6,1,0,0,1,0,0,18,0,6,9,5,11.4,0,0,6,8,5,10.8,0,9.4,-0.8,-3.12,Graduate
1,43,1,9500,1,1,137,1,Basic,Basic,129.3,1,0,0,1,0,0,19,0,8,12,7,12.071429,0,0,8,12,7,12.071429,0,12.7,3.7,-1.7,Graduate
1,1,1,9238,1,1,130,1,Secondary,Secondary,124.8,0,0,0,1,0,1,18,0,6,9,6,11.5,0,0,6,11,5,14,0,11.1,0.6,2.02,Graduate
1,15,1,9238,1,1,140,26,Basic,Basic,140,0,0,0,1,1,0,21,0,6,7,6,12.333333,0,0,6,7,6,13.428571,0,11.1,0.6,2.02,Graduate
2,7,1,9238,1,3,130,1,Basic,Basic,130,0,0,0,1,0,0,38,0,6,17,4,13.75,0,0,6,15,6,14.5,0,16.2,0.3,-0.92,Graduate
1,1,1,9238,1,1,165,1,Basic,Basic,152.4,1,0,0,1,0,1,18,0,6,8,6,15.5,0,0,6,7,6,14.285714,0,16.2,0.3,-0.92,Graduate
1,1,1,171,1,1,139,1,Basic,Basic,124,1,0,0,1,0,0,18,0,0,0,0,0,0,0,0,0,0,0,0,7.6,2.6,0.32,Graduate
1,7,1,9991,0,3,140,1,Basic,Basic,140,0,0,0,1,1,0,27,0,5,6,4,13.5,0,0,5,6,4,13.75,0,7.6,2.6,0.32,Graduate
1,43,1,9500,1,1,128,1,Secondary,Basic,100,1,0,0,1,0,0,20,0,7,8,7,13.1,0,0,8,8,8,14.8125,0,13.9,-0.3,0.79,Graduate
1,1,1,9500,1,1,152,1,Basic,Basic,156.9,0,0,0,1,0,1,18,0,7,10,7,14.668,0,0,8,8,8,14.63375,0,15.5,2.8,-4.06,Graduate
1,42,4,9500,1,6,133,1,Secondary,Basic,127.8,1,0,0,1,0,1,18,0,7,7,6,14.35,0,0,7,7,6,14.35,0,7.6,2.6,0.32,Graduate
1,42,1,9773,1,6,120,1,Unknown,Unknown,122,1,0,0,1,0,0,34,8,10,11,10,12.2,0,5,10,12,9,12.333333,0,7.6,2.6,0.32,Graduate
1,42,1,9500,1,1,123,1,Basic,Basic,123,1,0,0,1,0,1,21,0,8,8,8,13.105,0,0,8,8,8,13.105,0,9.4,-0.8,-3.12,Graduate
1,1,2,9085,1,1,122,1,Secondary,Secondary,126.2,0,0,0,1,0,0,19,0,6,8,6,14,0,0,6,18,3,12.666667,0,12.4,0.5,1.79,Graduate
4,39,2,9556,1,19,133.1,1,Basic,Basic,123,0,0,0,1,0,1,37,0,7,10,7,10.985714,0,0,8,11,8,12.3,0,10.8,1.4,1.74,Graduate
1,1,1,9238,1,1,133.1,1,Secondary,Secondary,110,0,0,1,1,0,0,23,0,6,8,6,12.625,0,0,6,6,6,14.166667,0,12.7,3.7,-1.7,Graduate
1,44,1,9003,1,39,140,1,Basic,Basic,140,0,0,0,1,0,0,19,0,6,7,6,12,0,0,6,7,6,12.666667,0,12.4,0.5,1.79,Graduate
1,1,1,9670,1,1,127,1,Higher,Basic,127,1,0,0,1,1,0,18,0,6,9,6,13.571429,0,0,6,11,4,14,0,12.4,0.5,1.79,Graduate
1,1,1,9670,1,1,130,1,Basic,Basic,121.6,0,0,0,1,0,0,19,0,6,7,6,14.714286,0,0,6,6,6,15.833333,0,12.4,0.5,1.79,Graduate
1,7,1,9085,1,40,130,1,Secondary,Secondary,130,1,0,0,1,0,0,22,0,6,7,6,17,0,0,6,7,6,16.285714,0,11.1,0.6,2.02,Graduate
1,1,3,9773,1,1,129,1,Basic,Basic,142,1,0,0,1,0,0,19,0,6,8,6,12.666667,0,0,6,7,6,12.714286,0,9.4,-0.8,-3.12,Graduate
1,39,1,9003,1,3,130,1,Higher,Higher,150,0,0,0,1,0,0,35,0,6,10,6,14,0,0,6,11,6,13.1,0,16.2,0.3,-0.92,Graduate
1,42,1,9500,1,1,111,1,Secondary,Higher,128.2,1,0,0,1,1,0,23,0,8,8,8,12.5075,0,0,8,8,8,12.5075,0,9.4,-0.8,-3.12,Graduate
1,17,1,9500,1,1,150,1,Basic,Basic,130.8,0,0,0,1,1,0,24,0,7,8,7,11.975,0,0,8,8,8,13.75,0,13.9,-0.3,0.79,Graduate
1,44,1,9085,1,39,140,1,Higher,Higher,140,1,0,0,1,0,0,19,0,6,8,4,14.4,0,0,6,6,5,13,0,13.9,-0.3,0.79,Graduate
1,44,1,9085,1,39,140,1,Higher,Secondary,140,1,0,0,1,0,1,20,2,6,11,6,11.833333,0,1,6,17,5,11.857143,0,12.4,0.5,1.79,Graduate
1,15,1,9254,1,1,140,26,Basic,Secondary,140,1,0,0,0,0,0,21,0,6,6,6,11.5,0,0,6,10,4,13.25,0,13.9,-0.3,0.79,Graduate
1,1,1,9500,1,1,148,1,Secondary,Secondary,127,1,0,0,1,1,0,20,0,8,8,7,12.841429,0,0,8,8,7,12.841429,0,10.8,1.4,1.74,Graduate
1,39,1,8014,0,19,133.1,1,Basic,Basic,131.5,0,0,1,1,0,1,39,0,6,9,6,11.833333,0,0,6,9,4,13.75,0,11.1,0.6,2.02,Graduate
2,43,1,8014,0,1,110,1,Basic,Basic,100,0,0,0,1,0,0,34,9,11,17,9,12.333333,0,3,7,12,7,12.142857,0,9.4,-0.8,-3.12,Graduate
1,1,5,9500,1,1,146,1,Basic,Basic,133.8,1,0,0,1,0,0,19,0,8,9,8,13.2325,1,0,8,9,8,13.2325,1,9.4,-0.8,-3.12,Graduate
1,1,1,9070,1,1,153,1,Higher,Higher,146.7,1,0,0,1,0,0,18,0,6,6,6,13.666667,0,0,6,6,5,14,0,12.7,3.7,-1.7,Graduate
2,39,1,9853,1,19,133.1,1,Basic,Basic,131,0,0,0,1,0,1,32,0,7,10,7,13.428571,0,2,8,8,8,13.25,0,13.9,-0.3,0.79,Graduate
1,1,6,9500,1,1,143,1,Basic,Basic,135.3,1,0,0,1,0,0,18,0,8,8,8,13.27625,0,0,8,8,8,13.27625,0,9.4,-0.8,-3.12,Graduate
1,39,1,9003,1,19,133.1,1,Basic,Basic,100,0,0,0,1,0,0,60,0,6,10,6,12.75,0,0,6,6,4,14.75,0,13.9,-0.3,0.79,Graduate
2,39,1,8014,0,19,133.1,1,Basic,Basic,112.5,0,0,0,1,0,0,32,0,6,8,5,13.8,0,0,6,7,6,12.166667,0,9.4,-0.8,-3.12,Graduate
1,18,1,9500,1,1,135,1,Higher,Higher,125.8,1,0,0,1,0,0,18,0,8,8,7,13.154286,0,0,8,8,7,13.154286,0,10.8,1.4,1.74,Graduate
1,1,1,9500,1,1,138,1,Basic,Basic,141,0,0,0,1,1,0,19,0,7,7,6,13.7,0,0,7,7,6,13.7,0,7.6,2.6,0.32,Graduate
1,1,1,9773,1,1,140,1,Basic,Basic,132,0,0,0,1,1,1,18,0,6,6,5,12,0,0,6,6,6,12.833333,0,12.7,3.7,-1.7,Graduate
1,1,1,9773,1,1,125,1,Higher,Basic,125.7,1,0,0,1,0,0,19,0,6,6,6,13,0,0,6,7,6,11.666667,0,8.9,1.4,3.51,Graduate
1,1,1,9085,1,1,134,1,Basic,Basic,128.4,1,0,0,1,0,1,19,0,5,7,5,12.5,0,0,5,8,5,12.714286,0,10.8,1.4,1.74,Graduate
1,1,2,9670,1,1,111,1,Basic,Basic,114.2,1,0,0,1,0,0,18,0,6,9,4,13.2,0,0,6,10,5,12.8,0,12.4,0.5,1.79,Graduate
1,17,3,9238,1,1,122,1,Basic,Basic,117.5,1,0,0,1,0,0,19,0,6,7,5,10.8,0,0,6,9,6,10.166667,0,8.9,1.4,3.51,Graduate
1,1,4,9070,1,1,136,1,Basic,Basic,136.7,1,0,0,1,0,0,20,0,6,6,4,13.5,0,0,6,8,6,13.625,0,10.8,1.4,1.74,Graduate
1,17,1,9070,1,1,118,1,Basic,Basic,111,1,0,0,1,0,0,21,0,6,6,6,12.5,0,0,6,6,6,12.666667,0,7.6,2.6,0.32,Graduate
1,1,1,9238,1,1,143,1,Basic,Secondary,144.4,1,0,0,1,0,0,20,0,6,7,6,13.5,0,0,6,6,6,13,0,10.8,1.4,1.74,Graduate
1,1,1,171,1,1,135,1,Secondary,Basic,137.5,1,0,1,0,1,0,19,0,0,0,0,0,0,0,0,0,0,0,0,12.7,3.7,-1.7,Graduate
1,1,1,9500,1,1,147,1,Higher,Secondary,131.6,0,0,0,1,0,0,18,0,7,8,6,13.958333,0,0,8,8,8,14.71875,0,11.1,0.6,2.02,Graduate
1,1,4,9500,1,1,128,1,Secondary,Secondary,125.2,1,0,0,1,1,1,18,0,7,7,7,14.682857,0,0,8,9,8,15.055556,0,12.4,0.5,1.79,Graduate
2,39,1,8014,0,1,120,1,Basic,Basic,110.5,0,0,0,1,0,1,36,0,6,6,6,11.833333,0,0,6,6,6,11.5,0,10.8,1.4,1.74,Graduate
1,1,3,9085,1,1,133,1,Secondary,Basic,128.2,0,0,0,1,0,0,21,0,5,7,5,12,0,0,5,7,4,12.5,0,7.6,2.6,0.32,Graduate
1,1,1,9085,1,1,145,1,Basic,Basic,139.8,1,0,0,1,0,0,20,0,5,6,5,14.8,1,0,5,6,5,14,0,12.7,3.7,-1.7,Graduate
1,39,1,9500,1,3,122,1,Basic,Secondary,135.8,0,0,0,1,0,0,24,0,8,8,7,12.401429,0,0,8,8,7,12.401429,0,10.8,1.4,1.74,Graduate
1,43,1,9147,1,1,123,1,Basic,Basic,106.2,0,0,0,1,0,0,49,9,13,22,10,10.4,0,4,9,18,6,10.666667,0,12.7,3.7,-1.7,Graduate
1,18,2,9556,1,1,126,1,Higher,Higher,115.5,0,0,0,1,1,0,18,0,7,11,6,13.433333,0,0,7,10,4,13.6,0,8.9,1.4,3.51,Graduate
1,17,1,9254,1,1,115,1,Secondary,Basic,109.4,1,0,0,1,0,0,19,0,6,8,6,12.666667,0,0,6,8,5,13.4,0,11.1,0.6,2.02,Graduate
5,42,1,9254,1,2,120,1,Basic,Basic,120,0,0,0,1,0,0,32,9,15,21,13,12.692308,0,12,15,22,13,12.384615,0,10.8,1.4,1.74,Graduate
1,1,1,9853,1,1,132,1,Secondary,Basic,122.9,1,0,0,1,0,0,20,0,7,7,7,13.857143,0,0,7,7,7,13.285714,0,11.1,0.6,2.02,Graduate
4,39,1,9147,1,1,140,1,Basic,Basic,142.8,0,0,0,1,0,0,43,0,5,5,5,16.4,0,0,5,5,5,16.6,0,7.6,2.6,0.32,Graduate
1,43,1,9238,1,1,142,1,Unknown,Unknown,131.9,0,0,0,1,0,1,29,9,16,17,16,12.588235,0,10,13,14,13,13.357143,0,9.4,-0.8,-3.12,Graduate
1,1,1,9500,1,1,156,1,Higher,Higher,140.8,0,0,0,1,0,0,18,0,8,8,7,15.7,0,0,8,8,7,15.7,0,12.7,3.7,-1.7,Graduate
1,43,2,9238,1,1,110,1,Basic,Basic,112.5,1,0,0,1,0,1,53,4,7,16,6,11,0,2,7,9,7,11,0,9.4,-0.8,-3.12,Graduate
1,17,1,9238,1,1,151,1,Basic,Secondary,144.4,1,0,0,1,0,0,18,0,6,8,6,15.375,0,0,6,7,6,16.428571,0,16.2,0.3,-0.92,Graduate
1,1,1,9670,1,1,100,1,Basic,Basic,100,0,0,0,1,0,0,20,0,6,8,6,12.5,0,0,6,10,5,14.166667,0,11.1,0.6,2.02,Graduate
1,16,4,9254,1,1,126,1,Basic,Basic,118.7,1,0,0,1,0,1,21,0,6,7,6,13.571429,0,0,6,6,6,12.5,0,8.9,1.4,3.51,Graduate
1,1,2,9500,1,1,149,1,Higher,Secondary,137.5,0,0,0,1,1,0,19,0,8,8,7,13.828571,0,0,8,8,7,13.828571,0,12.7,3.7,-1.7,Graduate
1,17,5,9773,1,1,146,1,Secondary,Basic,146.7,1,0,0,1,1,0,19,0,6,7,6,13.833333,0,0,6,8,6,13.625,0,7.6,2.6,0.32,Graduate
1,18,2,9500,1,1,141,24,Secondary,Secondary,126.8,1,0,0,1,0,1,20,0,8,8,8,14.2,0,0,8,8,8,14.2,0,9.4,-0.8,-3.12,Graduate
1,39,1,9670,1,1,130,1,Basic,Higher,159,0,0,0,1,0,1,51,0,6,8,5,11.6,0,0,6,9,5,14.2,0,12.4,0.5,1.79,Graduate
1,39,1,9500,1,19,133.1,1,Secondary,Higher,100,0,0,0,1,0,0,24,0,8,11,7,12.614286,0,0,8,11,7,12.614286,0,12.7,3.7,-1.7,Graduate
2,7,1,9670,1,3,110,1,Basic,Basic,110,0,0,0,1,0,0,32,4,11,15,8,13.6,0,2,8,10,8,15.111111,0,13.9,-0.3,0.79,Graduate
1,53,1,9003,1,42,130,1,Secondary,Basic,128.5,0,0,0,1,1,0,21,7,12,20,10,12.7,0,5,12,14,11,12.181818,0,8.9,1.4,3.51,Graduate
1,17,1,9853,1,1,141,1,Basic,Basic,142.8,0,0,0,1,0,1,19,0,7,7,7,14.428571,0,0,7,7,7,14.142857,0,16.2,0.3,-0.92,Graduate
2,39,1,8014,0,1,140,1,Basic,Basic,128,0,0,0,1,0,1,43,0,6,7,6,12.333333,0,0,6,8,6,11.5,0,8.9,1.4,3.51,Graduate
4,39,1,8014,0,1,130,1,Basic,Basic,138,0,0,0,1,0,0,42,0,6,8,5,11.2,0,0,6,6,6,12,0,8.9,1.4,3.51,Graduate
1,1,3,9500,1,1,144,1,Basic,Basic,128,1,0,0,1,0,1,18,0,8,11,7,12.908571,0,0,8,11,7,12.908571,0,10.8,1.4,1.74,Graduate
1,44,1,9085,1,39,150,1,Basic,Basic,150,1,0,0,1,0,1,22,3,6,11,6,13.142857,0,2,6,10,3,12,0,13.9,-0.3,0.79,Graduate
1,18,1,9500,1,1,130,1,Basic,Basic,119.3,1,0,0,1,0,1,19,0,8,8,7,11.4,0,0,8,8,7,11.4,0,10.8,1.4,1.74,Graduate
1,44,1,9003,1,39,160,1,Basic,Basic,160,0,0,0,1,1,1,22,0,6,8,6,13.125,0,0,6,10,6,13,0,16.2,0.3,-0.92,Graduate
1,1,1,9070,1,1,115,1,Basic,Secondary,123.4,0,0,0,1,0,0,23,1,6,8,6,13,1,0,6,8,6,11.875,0,13.9,-0.3,0.79,Graduate
1,1,5,9500,1,1,139,1,Basic,Basic,126.3,1,0,0,1,0,1,18,0,8,8,8,13.435,0,0,8,8,8,13.435,0,9.4,-0.8,-3.12,Graduate
1,17,1,9238,1,1,125,1,Higher,Higher,119.8,0,0,0,1,0,0,18,0,6,9,5,11.571429,0,0,6,8,6,12.142857,0,16.2,0.3,-0.92,Graduate
1,43,1,9238,1,39,120,1,Higher,Secondary,118.6,0,0,0,1,1,0,21,9,11,14,10,12.4,0,6,10,13,10,11.8,0,13.9,-0.3,0.79,Graduate
1,51,1,9070,1,1,132,1,Basic,Basic,120,0,0,0,1,0,1,23,0,6,6,6,15.333333,0,0,6,6,6,14.166667,0,11.1,0.6,2.02,Graduate
1,43,4,171,1,1,117,1,Basic,Secondary,109.3,0,0,0,1,1,0,19,0,0,0,0,0,0,0,0,0,0,0,0,9.4,-0.8,-3.12,Graduate
1,17,4,9147,1,1,120,1,Basic,Basic,111.3,1,0,0,1,0,0,21,0,5,5,5,12.6,0,0,5,5,5,13.2,0,8.9,1.4,3.51,Graduate
1,43,1,9500,1,1,148,1,Basic,Basic,131,1,0,0,1,0,1,22,18,23,23,20,14.575,3,18,23,23,20,14.575,3,7.6,2.6,0.32,Graduate
1,1,1,9238,1,1,135,1,Secondary,Secondary,122.8,0,0,0,1,0,0,18,0,6,7,6,14,0,0,6,7,6,14,0,10.8,1.4,1.74,Graduate
1,1,2,9070,1,1,124,1,Basic,Secondary,123.7,1,0,0,1,0,1,18,1,6,8,6,12.714286,1,0,6,8,6,12.625,0,13.9,-0.3,0.79,Graduate
1,1,1,8014,0,1,126,1,Basic,Basic,118.7,0,0,0,1,0,0,19,0,6,6,6,12.5,0,0,6,6,6,11.5,0,12.7,3.7,-1.7,Graduate
1,17,1,9085,1,1,133.1,1,Secondary,Basic,130,0,0,0,1,1,0,22,0,5,8,3,13,0,0,5,8,3,10.666667,0,7.6,2.6,0.32,Graduate
1,1,2,9500,1,1,125,1,Basic,Basic,114.9,0,0,0,1,0,0,18,0,7,8,6,13.133333,0,0,8,12,7,12.221429,0,16.2,0.3,-0.92,Graduate
1,1,1,9147,1,1,127,1,Secondary,Higher,121.8,0,0,0,1,1,0,19,0,5,8,5,11.6,0,0,5,10,4,13.5,3,16.2,0.3,-0.92,Graduate
1,51,1,8014,0,1,121,1,Secondary,Basic,112.3,0,0,0,1,0,0,22,14,16,16,13,10.923077,0,13,13,13,11,11.454545,0,16.2,0.3,-0.92,Graduate
1,1,1,9238,1,1,134,1,Secondary,Secondary,124.2,1,0,1,1,0,1,19,0,6,6,6,12.833333,0,0,6,6,6,12.666667,0,9.4,-0.8,-3.12,Graduate
1,39,1,9003,1,1,133.1,1,Basic,Basic,120,0,0,0,1,1,0,30,0,6,10,6,11.375,0,0,6,10,5,11.6,0,13.9,-0.3,0.79,Graduate
2,43,1,9991,0,1,110,1,Basic,Basic,132.5,0,0,0,1,1,0,37,7,12,13,12,12.25,0,8,13,13,13,12.846154,0,9.4,-0.8,-3.12,Graduate
1,39,1,9991,0,1,150,1,Secondary,Basic,120,0,0,0,1,1,0,25,0,5,6,4,10.5,0,0,5,6,5,12,0,9.4,-0.8,-3.12,Graduate
1,17,1,9773,1,1,150,1,Basic,Basic,137.8,1,0,0,1,0,1,18,0,6,6,6,15,0,0,6,6,6,15.5,0,8.9,1.4,3.51,Graduate
1,1,1,171,1,1,133.1,1,Basic,Basic,131.8,1,0,1,1,0,0,20,6,12,12,12,13.25,0,4,11,16,10,13.090909,0,8.9,1.4,3.51,Graduate
1,44,2,9238,1,39,150,1,Higher,Basic,147,1,0,0,1,0,0,19,3,6,6,6,14.166667,0,2,6,6,6,13.5,0,12.4,0.5,1.79,Graduate
1,39,1,9238,1,12,100,1,Basic,Basic,124.3,0,0,0,1,1,0,47,3,9,9,9,13.111111,0,3,7,7,7,14.857143,0,10.8,1.4,1.74,Graduate
1,1,1,171,1,1,169,1,Basic,Basic,176,1,0,0,1,0,1,18,0,0,0,0,0,0,0,0,0,0,0,0,12.4,0.5,1.79,Graduate
1,1,6,9500,1,1,150,1,Basic,Basic,131.5,1,0,0,1,0,1,19,0,8,8,7,12.657143,0,0,8,8,7,12.657143,0,12.7,3.7,-1.7,Graduate
1,17,1,9500,1,1,131,1,Secondary,Secondary,126.3,0,0,0,1,1,0,19,0,7,9,7,12.492857,0,0,8,10,8,11.7125,0,16.2,0.3,-0.92,Graduate
1,7,1,9500,1,3,130,1,Basic,Basic,130,1,0,0,1,0,0,23,1,7,8,6,14.357143,0,1,7,8,6,14.357143,0,7.6,2.6,0.32,Graduate
1,1,1,9500,1,1,130,1,Basic,Basic,116.8,0,0,0,1,0,0,20,0,8,8,7,12.685714,0,0,8,8,7,12.685714,0,12.7,3.7,-1.7,Graduate
1,18,1,9500,1,1,144,1,Basic,Basic,127.5,1,0,0,1,0,1,19,0,8,8,7,13.542857,0,0,8,8,7,13.542857,0,12.7,3.7,-1.7,Graduate
1,17,2,9070,1,1,136,1,Basic,Basic,140.9,1,0,0,1,0,0,19,0,6,6,6,14.333333,0,0,6,6,6,13.5,0,9.4,-0.8,-3.12,Graduate
1,17,1,9500,1,1,143,1,Basic,Basic,130.6,1,0,0,1,0,0,20,0,7,8,7,12.847143,0,0,8,10,8,13.788889,0,16.2,0.3,-0.92,Graduate
1,1,3,9500,1,1,137,1,Basic,Basic,126.5,1,0,0,1,0,1,19,0,8,8,8,13.57625,0,0,8,8,8,13.57625,0,9.4,-0.8,-3.12,Graduate
1,17,3,9773,1,1,132,1,Secondary,Secondary,124.3,1,0,1,1,0,1,19,0,6,6,6,11.833333,0,0,6,7,6,12.285714,0,15.5,2.8,-4.06,Graduate
1,1,2,9500,1,1,116,1,Basic,Basic,109,1,0,0,1,0,1,23,0,7,8,6,12.993333,0,0,8,9,8,12.66875,0,11.1,0.6,2.02,Graduate
1,1,4,9500,1,1,128,1,Basic,Secondary,124.3,1,0,0,1,1,0,19,0,8,8,7,12.665714,0,0,8,8,7,12.665714,0,10.8,1.4,1.74,Graduate
1,1,1,9773,1,1,130,1,Secondary,Basic,128.6,1,0,0,1,1,0,19,0,6,8,5,12,0,0,6,8,5,12.4,0,9.4,-0.8,-3.12,Graduate
1,1,3,9238,1,1,126,1,Basic,Basic,120.8,1,0,0,1,0,0,19,0,6,7,6,12.285714,0,0,6,7,6,12.833333,0,12.4,0.5,1.79,Graduate
1,44,1,9003,1,39,140,1,Basic,Basic,140,1,0,0,1,1,0,19,0,6,8,6,12.714286,0,0,6,9,6,13.5,0,12.4,0.5,1.79,Graduate
1,1,1,9147,1,1,133,1,Basic,Basic,129.9,0,0,0,1,1,0,18,0,5,5,5,11.6,0,0,5,5,5,13.2,0,12.4,0.5,1.79,Graduate
1,53,1,9147,1,42,140,1,Higher,Higher,140.2,0,0,0,1,0,0,20,6,11,19,9,12.555556,0,3,9,14,8,11.111111,0,8.9,1.4,3.51,Graduate
1,1,3,171,1,1,139,1,Basic,Basic,128.2,1,0,0,1,1,1,19,0,0,0,0,0,0,0,0,0,0,0,0,10.8,1.4,1.74,Graduate
1,1,1,9147,1,1,127,1,Basic,Basic,117.9,0,0,0,1,0,1,20,5,10,13,9,12.9,0,4,10,12,10,12.363636,0,8.9,1.4,3.51,Graduate
1,1,6,9500,1,1,133,1,Basic,Basic,128.8,1,0,0,1,0,1,18,0,7,11,6,11.994444,0,0,8,11,7,12.431429,0,15.5,2.8,-4.06,Graduate
1,1,4,9254,1,1,132,1,Secondary,Basic,122.6,1,0,0,1,0,1,18,0,6,7,6,12.285714,0,0,6,6,6,12,0,8.9,1.4,3.51,Graduate
1,1,1,9500,1,1,144,1,Basic,Basic,125.8,0,0,0,1,0,1,19,0,8,12,7,12.471429,0,0,8,12,7,12.471429,0,12.7,3.7,-1.7,Graduate
1,1,6,9500,1,1,118,1,Basic,Basic,113.5,1,0,0,1,1,0,18,0,7,7,7,13.175714,0,0,8,8,8,14.925,0,12.4,0.5,1.79,Graduate
1,17,4,9085,1,1,138,1,Basic,Basic,134.9,1,0,0,1,0,0,20,0,5,7,4,12.4,0,0,5,9,5,12.666667,0,7.6,2.6,0.32,Graduate
2,43,1,9254,1,3,120,1,Basic,Basic,120,1,0,0,1,0,0,33,9,12,22,10,13.3,0,9,11,11,11,13.727273,0,9.4,-0.8,-3.12,Graduate
1,17,2,9147,1,1,125,1,Basic,Basic,114.5,1,0,0,1,0,1,19,0,5,6,5,13.4,0,0,5,5,5,12.4,0,12.4,0.5,1.79,Graduate
1,1,4,9500,1,1,160,1,Basic,Basic,133,1,0,0,1,1,1,18,0,8,8,7,14.314286,0,0,8,8,7,14.314286,0,12.7,3.7,-1.7,Graduate
1,5,2,9853,1,1,124,1,Basic,Basic,113.9,1,0,0,1,0,1,19,0,6,8,6,12.666667,0,0,6,7,6,12,0,12.7,3.7,-1.7,Graduate
1,1,3,9500,1,1,143,1,Basic,Basic,127,1,0,0,1,0,0,18,0,8,8,8,13.07375,0,0,8,8,8,13.07375,0,9.4,-0.8,-3.12,Graduate
1,1,1,171,1,1,133.1,1,Higher,Secondary,128.2,1,0,0,1,0,0,20,5,12,13,12,11.230769,0,3,11,18,9,12.777778,0,11.1,0.6,2.02,Graduate
1,1,2,9773,1,1,142,1,Basic,Basic,132.9,1,0,0,1,1,0,18,0,6,8,6,12.333333,0,0,6,11,3,12.333333,0,10.8,1.4,1.74,Graduate
1,17,3,9500,1,1,141,1,Basic,Secondary,129,1,0,0,1,0,1,18,0,7,7,6,13.05,0,0,7,7,6,13.05,0,7.6,2.6,0.32,Graduate
1,1,1,9670,1,1,137,1,Basic,Basic,122.3,0,0,0,1,1,1,18,0,6,7,6,13.571429,0,0,6,6,6,14.333333,0,12.4,0.5,1.79,Graduate
1,1,1,9254,1,1,158,1,Basic,Secondary,153.5,1,0,0,1,0,0,20,0,6,7,6,14.833333,0,0,6,6,6,16,0,11.1,0.6,2.02,Graduate
1,44,1,9238,1,39,150,1,Secondary,Basic,145.6,1,0,0,1,0,1,20,3,6,6,6,13.333333,0,2,6,6,6,14.166667,0,13.9,-0.3,0.79,Graduate
1,1,1,9670,1,1,146,1,Secondary,Secondary,149.5,1,0,0,1,1,1,17,0,6,8,6,14.875,0,0,6,8,6,13.428571,0,11.1,0.6,2.02,Graduate
1,1,2,9238,1,1,134,1,Secondary,Basic,126,0,0,0,1,0,0,18,0,6,10,4,11,0,0,6,8,5,11.2,0,10.8,1.4,1.74,Graduate
1,1,4,9238,1,1,127,1,Secondary,Basic,120.4,1,0,0,1,0,1,19,0,6,6,6,13.5,0,0,6,7,6,13.428571,0,11.1,0.6,2.02,Graduate
1,39,1,9003,1,1,130,1,Basic,Basic,120,0,0,0,1,1,0,32,12,18,25,18,13.736842,0,10,13,15,12,13.75,1,15.5,2.8,-4.06,Graduate
1,1,1,9147,1,1,177,1,Secondary,Basic,162.3,0,0,0,1,0,1,18,0,5,6,5,16.333333,0,0,5,5,5,15.4,0,15.5,2.8,-4.06,Graduate
1,39,1,9085,1,19,133.1,1,Basic,Basic,139.9,1,0,0,1,0,1,24,1,6,7,6,12.5,0,0,6,11,6,12.833333,0,8.9,1.4,3.51,Graduate
1,1,2,9070,1,1,121,1,Basic,Basic,116.1,1,0,0,1,0,0,22,0,6,7,6,11.666667,0,0,6,7,5,13.2,0,12.7,3.7,-1.7,Graduate
1,16,1,171,1,1,122,1,Basic,Basic,133.9,1,0,0,1,1,0,25,9,13,16,10,11.454545,0,5,11,13,7,12.25,0,12.4,0.5,1.79,Dropout_Enrolled
1,1,1,9070,1,1,140,1,Basic,Basic,138.3,0,0,0,1,1,0,20,1,6,8,6,13.428571,1,0,6,12,4,11.5,0,13.9,-0.3,0.79,Dropout_Enrolled
1,44,1,9003,1,39,150,1,Higher,Higher,150,0,0,0,1,1,0,25,9,14,16,14,12.428571,0,3,9,13,6,10.857143,0,15.5,2.8,-4.06,Dropout_Enrolled
2,39,1,9147,1,1,130,1,Secondary,Basic,109.9,0,0,0,0,0,0,29,0,4,4,0,0,0,0,5,0,0,0,0,12.7,3.7,-1.7,Dropout_Enrolled
1,17,1,9238,1,1,148,1,Secondary,Secondary,129.8,0,0,0,1,0,0,20,0,6,11,5,10.6,0,0,6,11,4,10.4,0,15.5,2.8,-4.06,Dropout_Enrolled
1,18,4,9853,1,1,118,1,Basic,Basic,111.4,1,0,1,0,0,0,20,0,7,9,0,0,0,0,6,6,0,0,0,11.1,0.6,2.02,Dropout_Enrolled
1,17,4,9773,1,1,129,1,Higher,Secondary,132.5,1,0,0,1,1,0,21,0,6,7,0,0,0,0,6,11,1,10,0,10.8,1.4,1.74,Dropout_Enrolled
1,43,2,9773,1,1,120,1,Unknown,Unknown,103.6,1,0,0,1,0,0,27,4,8,11,7,13.285714,0,4,7,13,5,11.6,0,9.4,-0.8,-3.12,Dropout_Enrolled
1,43,1,9991,0,1,120,1,Basic,Basic,120,1,0,1,1,1,0,34,6,10,10,7,11.714286,0,4,10,10,6,11.5,0,10.8,1.4,1.74,Dropout_Enrolled
1,1,3,9147,1,1,127,1,Secondary,Basic,123.5,1,0,0,1,0,1,19,0,5,5,5,11.6,0,0,5,11,3,12.666667,0,9.4,-0.8,-3.12,Dropout_Enrolled
2,39,1,9556,1,1,160,1,Basic,Basic,120,0,0,0,1,0,0,31,0,7,21,5,10.9,3,0,8,21,3,11.7,1,12.7,3.7,-1.7,Dropout_Enrolled
1,15,1,9147,1,1,133.1,41,Higher,Secondary,100,0,0,1,0,1,0,26,6,7,7,6,13,0,2,6,6,2,14,0,11.1,0.6,2.02,Dropout_Enrolled
1,17,3,9853,1,1,118,1,Basic,Basic,121.2,1,0,0,1,0,0,18,0,6,8,5,13.4,0,0,6,7,5,12,0,7.6,2.6,0.32,Dropout_Enrolled
1,1,2,9085,1,1,130,1,Basic,Basic,129,0,0,0,1,0,0,20,0,5,7,4,11.75,0,0,5,9,2,10.5,0,7.6,2.6,0.32,Dropout_Enrolled
1,7,1,9085,1,3,120,1,Basic,Basic,120,0,0,0,1,0,0,32,4,10,20,4,11.5,2,3,9,13,3,11.666667,2,15.5,2.8,-4.06,Dropout_Enrolled
2,7,1,8014,0,3,120,1,Basic,Secondary,120,0,0,0,0,0,0,35,0,6,0,0,0,0,0,6,0,0,0,0,10.8,1.4,1.74,Dropout_Enrolled
1,1,2,9853,1,1,133,1,Basic,Basic,130.2,1,0,0,1,0,0,19,0,6,6,0,0,0,0,6,0,0,0,0,12.7,3.7,-1.7,Dropout_Enrolled
1,43,1,9500,1,1,133.1,1,Basic,Basic,114.5,0,0,0,1,0,0,23,0,7,11,6,12.1,0,0,7,7,6,12.616667,0,16.2,0.3,-0.92,Dropout_Enrolled
1,17,1,9147,1,1,136,1,Secondary,Secondary,122.7,1,0,0,1,1,0,18,0,5,6,5,12,0,0,5,7,4,12.5,0,15.5,2.8,-4.06,Dropout_Enrolled
1,1,1,9085,1,1,130,1,Secondary,Basic,134.2,1,0,0,1,0,0,20,0,5,13,0,0,5,0,5,5,0,0,5,9.4,-0.8,-3.12,Dropout_Enrolled
2,39,1,9003,1,1,130,1,Secondary,Basic,122,0,0,1,0,1,0,25,3,10,23,6,11.428571,0,2,7,15,4,12,1,15.5,2.8,-4.06,Dropout_Enrolled
1,39,1,9254,1,19,133.1,1,Basic,Basic,102.5,0,0,1,0,1,0,24,0,6,7,0,0,0,0,6,7,0,0,0,16.2,0.3,-0.92,Dropout_Enrolled
1,1,4,9147,1,1,146,1,Higher,Secondary,138.7,0,0,0,1,1,0,18,0,5,0,0,0,0,0,5,0,0,0,0,8.9,1.4,3.51,Dropout_Enrolled
1,43,1,9147,1,1,151,1,Secondary,Higher,111,0,0,0,1,1,0,28,0,5,9,2,10,0,0,5,9,0,0,0,15.5,2.8,-4.06,Dropout_Enrolled
1,39,1,9991,0,1,150,1,Basic,Basic,150,0,0,0,1,0,0,27,0,5,0,0,0,0,0,5,0,0,0,0,15.5,2.8,-4.06,Dropout_Enrolled
1,17,1,9147,1,1,130,1,Basic,Secondary,117.8,1,0,0,1,1,0,20,0,5,8,3,11,0,0,5,11,3,12,0,10.8,1.4,1.74,Dropout_Enrolled
1,17,2,9853,1,1,138,1,Secondary,Secondary,123,1,0,0,1,0,0,23,0,6,10,5,12.8,0,0,6,9,3,11.666667,0,10.8,1.4,1.74,Dropout_Enrolled
1,1,1,9991,0,1,131,1,Basic,Basic,118.4,1,0,0,1,0,0,20,0,5,10,0,0,0,0,5,10,0,0,3,7.6,2.6,0.32,Dropout_Enrolled
1,43,1,9130,1,1,133.1,6,Basic,Basic,100,0,0,0,1,0,0,37,0,6,0,0,0,0,0,6,0,0,0,0,13.9,-0.3,0.79,Dropout_Enrolled
1,44,1,9003,1,39,130,1,Higher,Higher,130,1,0,0,1,1,0,20,0,6,12,4,11.6,0,0,6,11,5,11.5,0,15.5,2.8,-4.06,Dropout_Enrolled
2,39,1,9853,1,1,133.1,1,Basic,Basic,116.5,0,0,0,1,0,0,34,0,7,11,1,10,0,0,7,7,1,13,0,16.2,0.3,-0.92,Dropout_Enrolled
1,44,1,9119,1,39,180,1,Secondary,Secondary,180,0,0,0,1,1,1,20,3,7,12,6,14.142857,0,1,6,10,6,14.125,0,12.4,0.5,1.79,Dropout_Enrolled
1,17,1,9130,1,1,157,1,Higher,Higher,150.9,1,0,0,1,0,0,18,0,6,8,6,15,0,0,6,8,5,15.166667,0,13.9,-0.3,0.79,Dropout_Enrolled
1,1,1,9147,1,1,130,1,Basic,Basic,119.5,1,0,0,1,1,1,18,0,5,7,4,11.25,0,0,5,6,4,12.25,0,12.4,0.5,1.79,Dropout_Enrolled
1,7,1,8014,0,40,130,1,Basic,Secondary,130,1,0,1,0,0,0,23,7,12,12,11,14,0,4,10,11,8,14.625,0,13.9,-0.3,0.79,Dropout_Enrolled
1,44,1,9119,1,39,130,1,Basic,Higher,130,0,0,1,0,1,0,23,0,5,5,0,0,0,0,5,5,0,0,0,15.5,2.8,-4.06,Dropout_Enrolled
1,17,1,9003,1,1,170,1,Secondary,Higher,144.1,1,0,1,0,1,0,26,0,6,8,0,0,0,0,6,10,0,0,0,16.2,0.3,-0.92,Dropout_Enrolled
1,44,1,9130,1,39,160,1,Secondary,Basic,160,1,0,1,0,0,0,36,2,6,9,6,12,0,1,6,8,3,14.666667,0,12.4,0.5,1.79,Dropout_Enrolled
1,17,1,171,1,1,145,1,Basic,Basic,130,1,0,0,1,0,0,23,0,0,0,0,0,0,0,0,0,0,0,0,11.1,0.6,2.02,Dropout_Enrolled
1,17,1,9773,1,1,125,1,Higher,Higher,118,1,0,0,1,1,0,19,0,6,12,4,10.8,0,0,6,14,3,11,0,13.9,-0.3,0.79,Dropout_Enrolled
4,43,1,8014,0,12,133.1,1,Unknown,Unknown,106,1,0,0,1,0,0,48,0,6,9,5,13,0,0,6,10,4,12.5,0,7.6,2.6,0.32,Dropout_Enrolled
1,39,1,9130,1,1,120,1,Secondary,Basic,150,0,0,0,1,1,0,25,0,6,6,0,0,0,0,6,6,0,0,0,12.4,0.5,1.79,Dropout_Enrolled
1,44,1,9085,1,39,140,1,Basic,Basic,140,1,0,0,1,0,0,21,2,6,16,5,12.666667,0,1,6,15,2,13.5,0,16.2,0.3,-0.92,Dropout_Enrolled
1,17,1,9119,1,1,131,1,Secondary,Higher,123.7,1,0,0,1,1,0,20,0,5,7,4,12,0,0,5,8,2,12.5,0,10.8,1.4,1.74,Dropout_Enrolled
1,39,1,9003,1,1,160,1,Secondary,Basic,140,0,0,0,1,1,0,27,0,6,6,0,0,0,0,6,6,0,0,0,11.1,0.6,2.02,Dropout_Enrolled
1,17,3,9670,1,1,110,1,Basic,Secondary,107.5,1,0,0,1,0,1,18,0,6,11,4,12.25,0,0,6,10,4,11,0,12.7,3.7,-1.7,Dropout_Enrolled
2,39,1,8014,0,19,133.1,1,Higher,Basic,123.5,0,0,0,1,0,0,50,0,1,1,0,0,1,0,6,0,0,0,0,10.8,1.4,1.74,Dropout_Enrolled
1,17,3,9147,1,1,120,1,Basic,Basic,115.5,1,0,1,1,1,0,18,0,5,8,3,10.333333,0,0,5,11,3,10.857143,0,10.8,1.4,1.74,Dropout_Enrolled
1,1,1,171,1,1,180,41,Basic,Basic,152.7,1,0,1,0,1,0,27,0,0,0,0,0,0,0,0,0,0,0,0,7.6,2.6,0.32,Dropout_Enrolled
1,17,2,9147,1,1,118,1,Basic,Secondary,113.5,1,0,1,1,0,0,20,0,5,10,2,11.5,0,0,5,8,3,10,0,11.1,0.6,2.02,Dropout_Enrolled
1,1,1,9119,1,1,150,1,Secondary,Secondary,143.4,0,0,0,0,1,1,18,0,5,5,5,14.2,0,0,5,5,5,14.2,0,8.9,1.4,3.51,Dropout_Enrolled
1,17,5,9070,1,1,122,1,Basic,Basic,119.6,0,0,1,0,0,0,21,0,6,6,4,13,0,0,6,8,4,11.6,0,10.8,1.4,1.74,Dropout_Enrolled
1,43,1,9500,1,19,133.1,1,Unknown,Unknown,110,1,0,0,1,1,0,27,0,7,7,0,0,6,0,7,7,0,0,6,7.6,2.6,0.32,Dropout_Enrolled
1,43,1,9070,1,1,135,1,Basic,Basic,122.8,1,0,0,1,1,1,20,0,6,8,3,11,0,0,6,8,2,11.333333,0,10.8,1.4,1.74,Dropout_Enrolled
1,42,1,9119,1,1,140,1,Higher,Higher,133.6,1,0,0,1,1,0,22,0,5,0,0,0,0,0,5,0,0,0,0,10.8,1.4,1.74,Dropout_Enrolled
1,17,1,9670,1,1,115,1,Secondary,Secondary,109.1,1,0,0,1,0,1,19,0,6,7,6,13.285714,0,0,6,9,5,14.6,0,12.4,0.5,1.79,Dropout_Enrolled
1,17,3,9070,1,1,131,1,Basic,Basic,120.2,1,0,0,1,1,0,18,0,6,6,6,12.833333,0,0,6,8,5,11.4,0,15.5,2.8,-4.06,Dropout_Enrolled
1,17,1,9254,1,1,122,1,Basic,Basic,114.3,0,0,0,0,0,0,20,0,6,0,0,0,0,0,6,0,0,0,0,15.5,2.8,-4.06,Dropout_Enrolled
1,39,1,8014,0,1,133.1,1,Basic,Basic,148.5,0,0,0,1,1,0,34,0,6,6,4,12.25,0,0,5,5,0,0,0,11.1,0.6,2.02,Dropout_Enrolled
1,39,1,9991,0,1,120,1,Basic,Basic,140,0,0,0,1,0,0,25,0,5,11,3,10.666667,0,0,5,11,3,11.333333,0,15.5,2.8,-4.06,Dropout_Enrolled
1,1,1,9130,1,1,120,1,Basic,Basic,116.1,1,0,0,1,1,0,22,0,5,9,2,10.5,0,0,5,5,0,0,0,12.7,3.7,-1.7,Dropout_Enrolled
1,17,1,9147,1,1,118,1,Secondary,Basic,118.4,1,0,0,1,1,0,19,0,5,10,2,10.5,0,0,5,5,4,11.75,0,12.4,0.5,1.79,Dropout_Enrolled
1,17,1,9853,1,1,127,1,Basic,Basic,121.8,1,0,1,1,0,0,18,0,6,12,4,13.5,0,0,6,14,3,10.666667,0,10.8,1.4,1.74,Dropout_Enrolled
1,17,3,9070,1,1,116,1,Basic,Basic,110.8,0,0,0,1,0,0,18,0,6,6,6,11.833333,0,0,6,6,6,12.5,0,7.6,2.6,0.32,Dropout_Enrolled
1,17,3,9119,1,1,117,1,Secondary,Higher,119.8,1,0,0,1,1,0,19,0,5,10,2,11,0,0,6,10,0,0,0,11.1,0.6,2.02,Dropout_Enrolled
2,39,2,9670,1,1,100,1,Basic,Basic,100,0,0,0,1,0,0,35,0,5,8,5,11.4,0,0,5,7,3,12.333333,0,9.4,-0.8,-3.12,Dropout_Enrolled
1,39,1,9254,1,19,133.1,1,Basic,Secondary,97,0,0,1,0,1,0,36,0,5,10,0,0,0,0,5,5,0,0,0,15.5,2.8,-4.06,Dropout_Enrolled
1,1,1,9254,1,1,160,1,Basic,Basic,140.8,1,0,0,1,1,0,23,0,6,8,6,12.666667,0,0,6,10,5,12.2,0,7.6,2.6,0.32,Dropout_Enrolled
1,1,1,9238,1,1,133.1,1,Secondary,Basic,107,1,0,0,1,0,0,19,0,6,11,5,10.6,0,0,6,10,6,11.714286,0,11.1,0.6,2.02,Dropout_Enrolled
1,1,1,9773,1,1,143,1,Secondary,Higher,149,1,0,0,1,0,0,18,0,6,8,6,11.428571,0,0,6,7,6,11,0,11.1,0.6,2.02,Dropout_Enrolled
2,39,1,9991,0,39,140,1,Basic,Basic,110,0,0,0,1,0,1,35,0,5,9,3,11.666667,0,0,5,7,5,11.8,0,12.7,3.7,-1.7,Dropout_Enrolled
1,17,4,9853,1,1,143,1,Basic,Basic,127.3,1,0,0,1,0,0,18,0,6,7,5,11.8,0,0,6,7,5,11.4,0,10.8,1.4,1.74,Dropout_Enrolled
1,39,1,8014,0,1,140,1,Basic,Basic,122,1,0,1,0,1,0,29,0,6,11,4,12.5,0,0,6,7,0,0,0,12.4,0.5,1.79,Dropout_Enrolled
1,1,4,9070,1,1,140,1,Higher,Basic,125,1,0,0,1,1,0,19,0,6,7,6,12.666667,0,0,6,8,6,12.142857,0,9.4,-0.8,-3.12,Dropout_Enrolled
1,39,1,9085,1,1,140,1,Higher,Higher,141.7,1,0,0,1,0,0,27,0,6,13,3,10.5,0,0,6,19,1,12,0,12.4,0.5,1.79,Dropout_Enrolled
1,43,1,9773,1,1,128,1,Basic,Basic,124.2,1,0,0,1,1,0,22,0,6,17,3,11.333333,3,0,6,14,3,12.333333,0,15.5,2.8,-4.06,Dropout_Enrolled
1,1,2,171,1,1,136,1,Secondary,Secondary,134.3,1,0,1,1,0,0,19,0,0,0,0,0,0,0,0,0,0,0,0,12.4,0.5,1.79,Dropout_Enrolled
2,42,1,9147,1,1,133.1,1,Basic,Basic,115.8,0,0,0,0,1,0,49,0,5,5,0,0,0,0,5,9,0,0,0,10.8,1.4,1.74,Dropout_Enrolled
1,18,2,9853,1,1,120,1,Secondary,Secondary,115.8,0,0,0,1,0,0,18,0,7,12,6,12,0,0,7,11,6,12.166667,0,13.9,-0.3,0.79,Dropout_Enrolled
1,44,1,9003,1,39,140,1,Basic,Basic,140,0,0,0,1,0,0,24,0,6,10,6,11.428571,0,0,6,12,5,13,0,12.4,0.5,1.79,Dropout_Enrolled
1,1,5,9500,1,1,125,1,Higher,Basic,120.3,1,0,0,1,0,0,19,0,7,11,5,11.716667,0,0,7,8,5,13.7,0,13.9,-0.3,0.79,Dropout_Enrolled
1,17,2,9085,1,1,133.1,1,Basic,Basic,100,1,0,1,0,1,0,19,0,6,10,5,12.5,0,0,6,19,2,13.5,0,12.4,0.5,1.79,Dropout_Enrolled
1,5,4,9119,1,1,115,1,Basic,Basic,113.3,1,0,0,1,1,0,23,0,5,7,0,0,0,0,5,5,0,0,0,7.6,2.6,0.32,Dropout_Enrolled
1,17,1,9130,1,1,122,1,Basic,Basic,121.7,1,0,0,0,0,0,22,0,6,0,0,0,0,0,2,2,0,0,2,9.4,-0.8,-3.12,Dropout_Enrolled
1,17,1,9147,1,1,117,1,Basic,Basic,109.3,0,0,0,0,0,0,22,0,5,9,2,10,1,0,5,11,1,10,0,9.4,-0.8,-3.12,Dropout_Enrolled
1,17,2,9254,1,1,118,1,Basic,Basic,121.2,0,0,0,1,1,1,18,0,6,12,3,10.666667,0,0,6,9,4,12,0,15.5,2.8,-4.06,Dropout_Enrolled
1,43,1,9670,1,39,110,1,Basic,Higher,110,0,0,0,1,0,0,21,0,6,8,5,11.833333,0,0,6,8,4,13.25,2,16.2,0.3,-0.92,Dropout_Enrolled
1,15,1,9500,1,1,190,108,Higher,Higher,190,1,0,0,1,0,0,18,0,7,15,4,11.575,0,0,7,10,5,12.42,0,12.4,0.5,1.79,Dropout_Enrolled
1,1,1,9254,1,1,100,1,Basic,Basic,101.8,1,0,0,1,0,0,21,0,6,8,5,11.6,0,0,6,6,5,13,0,12.4,0.5,1.79,Dropout_Enrolled
1,17,1,9254,1,1,119,1,Basic,Basic,118,1,0,0,1,1,0,19,0,6,13,2,10.5,0,0,6,11,1,12,0,10.8,1.4,1.74,Dropout_Enrolled
1,1,1,9773,1,1,146,1,Basic,Basic,128.5,0,0,1,1,0,0,19,0,6,13,3,12.666667,0,0,6,12,2,10,0,10.8,1.4,1.74,Dropout_Enrolled
1,39,1,9085,1,1,133.1,1,Secondary,Secondary,120,0,0,1,0,1,0,31,0,5,13,4,13.5,1,0,5,12,3,11.666667,1,9.4,-0.8,-3.12,Dropout_Enrolled
1,7,1,9070,1,3,120,1,Higher,Higher,120,0,0,0,1,1,0,28,0,6,9,2,12,0,0,6,10,3,12.666667,0,12.7,3.7,-1.7,Dropout_Enrolled
1,18,1,9119,1,1,148,1,Higher,Basic,147.7,0,0,0,1,1,1,18,0,5,5,0,0,0,0,5,5,0,0,0,9.4,-0.8,-3.12,Dropout_Enrolled
1,17,2,9085,1,1,120,1,Secondary,Secondary,115,0,0,0,0,0,0,20,0,5,8,2,10.5,0,0,5,8,2,12.333333,0,7.6,2.6,0.32,Dropout_Enrolled
1,1,2,9147,1,1,128,1,Secondary,Secondary,120.3,0,0,0,1,1,0,19,0,5,9,5,10.8,0,0,5,13,2,13.5,0,8.9,1.4,3.51,Dropout_Enrolled
1,18,1,9773,1,1,125,1,Basic,Basic,122.2,0,0,0,0,0,0,18,0,6,7,5,12.6,0,0,6,6,5,11.8,0,11.1,0.6,2.02,Dropout_Enrolled
1,1,5,9500,1,1,141,1,Basic,Basic,132.5,1,0,0,0,0,0,19,0,7,0,0,0,0,0,8,0,0,0,0,12.7,3.7,-1.7,Dropout_Enrolled
1,1,1,9119,1,1,163,1,Basic,Basic,150.8,1,0,0,1,1,0,18,0,5,9,4,10.5,0,0,5,11,2,10.5,3,7.6,2.6,0.32,Dropout_Enrolled
1,39,1,9254,1,19,133.1,1,Basic,Basic,100,0,0,0,1,1,0,48,0,6,13,3,10,0,0,6,15,1,10,0,7.6,2.6,0.32,Dropout_Enrolled
2,39,1,9500,1,3,130,1,Secondary,Secondary,140,0,0,1,0,0,0,30,3,7,11,3,12.333333,0,3,7,9,3,11.666667,0,13.9,-0.3,0.79,Dropout_Enrolled
1,43,1,33,1,1,143,1,Basic,Secondary,121.2,1,0,0,1,1,0,25,5,10,13,5,11.6,0,2,8,10,2,13,0,12.4,0.5,1.79,Dropout_Enrolled
1,1,1,9773,1,1,143,1,Secondary,Basic,136.7,1,0,0,1,0,1,18,0,6,6,6,13.833333,0,0,6,6,6,14,0,11.1,0.6,2.02,Dropout_Enrolled
1,39,1,9085,1,12,133.1,1,Basic,Basic,144,0,0,0,1,1,0,51,0,6,0,0,0,0,0,6,0,0,0,0,12.4,0.5,1.79,Dropout_Enrolled
2,39,1,8014,0,1,133.1,1,Basic,Basic,100,0,0,1,1,0,0,37,3,8,12,7,11.375,0,2,7,10,6,12.166667,0,13.9,-0.3,0.79,Dropout_Enrolled
1,17,4,9254,1,1,118,1,Basic,Basic,111.7,1,0,0,1,1,0,18,0,6,12,3,11.666667,0,0,6,12,1,12,0,12.4,0.5,1.79,Dropout_Enrolled
2,39,1,9991,0,19,133.1,1,Basic,Basic,111.9,1,0,0,1,1,0,41,0,5,5,0,0,0,0,5,5,0,0,0,7.6,2.6,0.32,Dropout_Enrolled
1,7,1,8014,0,3,130,1,Basic,Basic,130,0,0,0,0,0,0,28,0,6,12,1,11,0,0,6,0,0,0,0,12.7,3.7,-1.7,Dropout_Enrolled
1,44,1,9130,1,39,140,1,Secondary,Basic,140,0,0,0,1,0,0,19,0,6,0,0,0,0,0,6,0,0,0,0,12.7,3.7,-1.7,Dropout_Enrolled
1,39,1,9991,0,1,130,1,Basic,Basic,151.6,0,0,0,1,0,0,24,0,5,9,5,12.285714,0,0,5,8,5,12.125,0,16.2,0.3,-0.92,Dropout_Enrolled
1,17,2,9500,1,1,131,1,Basic,Secondary,118.4,1,0,0,1,0,1,20,0,7,9,6,13.766667,0,0,8,9,8,13.744444,0,16.2,0.3,-0.92,Dropout_Enrolled
1,1,1,9147,1,1,143,1,Secondary,Secondary,138.8,0,0,0,0,1,0,18,0,5,9,3,11.333333,0,0,5,8,2,13.5,0,8.9,1.4,3.51,Dropout_Enrolled
1,17,3,9556,1,1,126,1,Basic,Basic,119,1,0,0,1,0,1,19,0,7,8,7,12.142857,0,0,8,8,8,13.375,0,16.2,0.3,-0.92,Dropout_Enrolled
1,44,1,9003,1,39,140,1,Basic,Basic,140,0,0,0,1,0,0,21,0,6,12,3,10.666667,2,0,6,12,4,12,0,15.5,2.8,-4.06,Dropout_Enrolled
1,1,2,9085,1,1,125,1,Basic,Basic,137.3,0,0,0,1,1,0,18,0,6,0,0,0,0,0,6,0,0,0,0,7.6,2.6,0.32,Dropout_Enrolled
2,39,1,9500,1,1,133.1,1,Basic,Basic,130.1,0,0,0,0,1,0,37,0,7,10,5,13,0,0,7,9,5,12.88,0,11.1,0.6,2.02,Dropout_Enrolled
1,39,1,9147,1,1,120,1,Secondary,Basic,110,0,0,0,1,1,0,27,0,5,13,3,10.75,0,0,5,9,3,10.333333,0,15.5,2.8,-4.06,Dropout_Enrolled
1,53,1,9070,1,42,130,1,Higher,Basic,130,1,0,0,0,0,1,22,0,6,8,6,11,0,0,6,10,4,12,0,8.9,1.4,3.51,Dropout_Enrolled
1,1,1,9853,1,1,127,1,Higher,Secondary,137.2,1,0,0,1,0,0,18,0,6,7,6,12.166667,0,0,6,10,4,12.75,0,10.8,1.4,1.74,Dropout_Enrolled
1,1,3,9500,1,1,113,1,Higher,Secondary,107.8,1,0,0,1,0,1,20,0,7,10,5,14.46,0,0,7,8,6,13.55,0,12.4,0.5,1.79,Dropout_Enrolled
1,39,1,8014,0,1,100,1,Secondary,Higher,116.5,0,0,1,0,0,0,37,0,6,6,0,0,0,0,5,5,0,0,0,8.9,1.4,3.51,Dropout_Enrolled
1,1,1,171,1,1,143,1,Higher,Basic,142.7,1,0,0,1,0,0,18,0,0,0,0,0,0,0,0,0,0,0,0,16.2,0.3,-0.92,Dropout_Enrolled
1,1,1,9500,1,1,135,1,Basic,Basic,135.4,1,0,0,1,1,0,21,0,7,9,6,12.565,0,0,8,12,5,12.16,0,11.1,0.6,2.02,Dropout_Enrolled
1,17,1,9085,1,1,138,1,Higher,Basic,126.8,1,0,0,1,0,0,18,0,5,12,2,11.5,0,0,5,12,3,11.8,2,10.8,1.4,1.74,Dropout_Enrolled
1,17,2,9773,1,1,150,1,Secondary,Secondary,130.8,0,0,0,1,1,0,20,0,6,15,2,12,0,0,6,12,0,0,0,10.8,1.4,1.74,Dropout_Enrolled
1,44,1,9085,1,39,140,1,Basic,Basic,140,0,0,1,0,0,0,20,1,6,13,4,13,0,1,6,11,5,12,0,16.2,0.3,-0.92,Dropout_Enrolled
1,1,3,9773,1,1,136,1,Higher,Secondary,129,1,0,0,1,0,1,19,0,6,7,6,14,0,0,6,8,5,12.2,0,13.9,-0.3,0.79,Dropout_Enrolled
1,39,1,8014,0,1,120,100,Secondary,Secondary,119.5,0,0,1,1,0,0,25,2,6,6,6,11.333333,0,0,6,6,4,11.75,0,8.9,1.4,3.51,Dropout_Enrolled
1,39,1,9147,1,1,140,1,Secondary,Higher,118,1,0,0,1,0,0,24,0,5,5,0,0,0,0,5,5,0,0,0,7.6,2.6,0.32,Dropout_Enrolled
1,44,1,9991,0,39,150,1,Basic,Basic,150,0,0,0,1,0,0,31,2,6,8,6,12,0,2,7,8,7,13.428571,0,9.4,-0.8,-3.12,Dropout_Enrolled
1,1,2,9773,1,1,108,1,Basic,Basic,115,1,0,1,0,0,0,20,0,6,0,0,0,0,0,6,0,0,0,0,8.9,1.4,3.51,Dropout_Enrolled
2,39,1,9500,1,19,133.1,1,Basic,Basic,100,0,0,0,1,1,0,33,0,7,7,5,13.06,0,0,7,9,0,0,0,16.2,0.3,-0.92,Dropout_Enrolled
1,1,3,9773,1,1,131,1,Basic,Basic,127.2,1,0,0,1,0,1,18,0,6,6,6,15,0,0,6,6,6,12.833333,0,8.9,1.4,3.51,Dropout_Enrolled
1,1,1,9500,1,1,123,1,Basic,Basic,119.7,0,0,0,1,1,0,20,0,7,8,0,0,1,0,7,7,0,0,0,13.9,-0.3,0.79,Dropout_Enrolled
1,1,1,171,1,1,147,1,Higher,Higher,145.3,1,0,0,1,0,0,18,0,0,0,0,0,0,0,0,0,0,0,0,12.4,0.5,1.79,Dropout_Enrolled
1,39,2,9147,1,1,143,1,Basic,Higher,100,1,0,0,1,1,0,24,0,5,8,3,10.666667,1,0,5,5,1,14,0,9.4,-0.8,-3.12,Dropout_Enrolled
1,1,3,9070,1,1,125,1,Basic,Basic,125.4,1,0,0,1,0,0,19,0,6,7,5,12.4,0,0,6,6,5,12.4,0,9.4,-0.8,-3.12,Dropout_Enrolled
1,18,6,9500,1,1,142,1,Basic,Basic,128,1,0,0,0,0,0,19,0,7,14,0,0,0,0,8,0,0,0,0,11.1,0.6,2.02,Dropout_Enrolled
1,17,2,171,1,1,141,1,Basic,Basic,136.1,1,0,0,1,0,1,18,0,0,0,0,0,0,0,0,0,0,0,0,12.7,3.7,-1.7,Dropout_Enrolled
1,18,2,9853,1,1,123,1,Secondary,Higher,123.7,1,0,1,0,0,0,20,0,6,11,5,13.2,0,0,6,8,4,10.75,0,10.8,1.4,1.74,Dropout_Enrolled
1,43,1,9991,0,1,133.1,41,Basic,Basic,114.7,0,0,0,1,0,0,34,2,2,2,2,10.5,0,1,1,1,1,11,0,10.8,1.4,1.74,Dropout_Enrolled
1,53,1,9085,1,42,130,1,Basic,Basic,128.8,0,0,0,1,0,0,21,7,10,12,8,12.875,0,4,9,14,5,13.4,0,8.9,1.4,3.51,Dropout_Enrolled
1,1,5,9853,1,1,123,1,Secondary,Secondary,113.2,1,0,0,1,0,0,20,0,6,12,4,12,0,0,6,11,1,10,0,10.8,1.4,1.74,Dropout_Enrolled
1,51,1,9147,1,1,99,1,Higher,Secondary,99.7,1,0,1,0,0,0,22,0,5,8,0,0,0,0,5,7,0,0,0,8.9,1.4,3.51,Dropout_Enrolled
1,1,1,171,1,1,136,1,Higher,Higher,152.5,1,0,0,1,0,0,20,0,0,0,0,0,0,0,0,0,0,0,0,13.9,-0.3,0.79,Dropout_Enrolled
1,1,5,9670,1,1,120,1,Higher,Secondary,112,1,0,0,1,0,0,18,0,6,10,4,11.25,0,0,6,11,5,12.2,0,8.9,1.4,3.51,Dropout_Enrolled
1,44,1,9003,1,1,140,1,Secondary,Basic,140,1,0,1,0,0,0,23,0,6,13,5,11.6,0,0,6,11,4,12.25,0,12.4,0.5,1.79,Dropout_Enrolled
1,1,2,9147,1,1,121,1,Basic,Basic,126.3,1,0,0,1,0,0,20,0,5,12,1,10,2,0,5,5,0,0,0,12.7,3.7,-1.7,Dropout_Enrolled
1,16,1,9070,1,1,145,1,Secondary,Secondary,146.1,1,0,0,1,0,0,18,0,6,6,1,15,0,0,6,7,4,12.5,0,9.4,-0.8,-3.12,Dropout_Enrolled
1,39,1,9991,0,1,150,1,Higher,Secondary,154,0,0,0,1,0,0,27,0,5,5,0,0,0,0,5,6,0,0,0,12.4,0.5,1.79,Dropout_Enrolled
1,42,1,9119,1,1,120,1,Higher,Secondary,108.2,1,0,0,1,1,0,26,4,10,14,4,11.25,0,4,11,11,4,12,0,7.6,2.6,0.32,Dropout_Enrolled
2,39,1,9991,0,1,133.1,1,Basic,Basic,150,0,0,0,1,1,0,47,0,5,8,4,10,0,0,5,8,4,12.5,0,9.4,-0.8,-3.12,Dropout_Enrolled
1,1,2,9773,1,1,135,1,Higher,Secondary,136.1,1,0,0,1,1,0,19,0,6,9,5,11.4,0,0,6,13,5,12.4,0,8.9,1.4,3.51,Dropout_Enrolled
4,39,1,9130,1,1,140,1,Basic,Basic,150,1,0,0,1,1,0,34,0,6,9,0,0,0,0,6,6,0,0,0,16.2,0.3,-0.92,Dropout_Enrolled
1,1,6,171,1,1,126,1,Secondary,Secondary,130.2,1,0,0,1,1,1,18,0,0,0,0,0,0,0,0,0,0,0,0,9.4,-0.8,-3.12,Dropout_Enrolled
1,39,1,9500,1,1,120,1,Basic,Basic,108.5,0,0,0,1,1,0,36,0,7,18,0,0,0,0,7,7,0,0,0,13.9,-0.3,0.79,Dropout_Enrolled
1,39,1,9991,0,1,140,1,Basic,Basic,140,0,0,0,0,0,0,37,0,5,5,0,0,0,0,5,5,0,0,0,15.5,2.8,-4.06,Dropout_Enrolled
1,39,1,9003,1,19,133.1,1,Higher,Secondary,100,1,0,0,1,1,0,35,0,6,13,3,11.75,0,0,6,10,0,0,0,13.9,-0.3,0.79,Dropout_Enrolled
1,39,1,9003,1,19,133.1,1,Basic,Basic,140,0,0,1,1,1,0,24,0,6,10,6,14.888889,0,0,6,11,6,13.727273,0,16.2,0.3,-0.92,Dropout_Enrolled
1,17,5,9853,1,1,117,1,Basic,Basic,114.6,1,0,0,1,0,0,19,0,6,11,4,13.25,0,0,6,10,4,10.25,0,9.4,-0.8,-3.12,Dropout_Enrolled
1,5,3,9085,1,1,141,1,Secondary,Basic,128.8,1,0,0,1,0,0,19,0,5,9,3,10.333333,1,0,5,8,3,13,0,7.6,2.6,0.32,Dropout_Enrolled
1,43,1,9556,1,1,149,1,Secondary,Secondary,140.2,1,1,0,1,0,0,20,1,7,9,7,12.333333,0,0,8,8,8,12.625,0,12.7,3.7,-1.7,Dropout_Enrolled
1,1,4,9254,1,1,110,1,Basic,Basic,113.2,1,0,0,1,0,0,24,0,6,14,2,10.5,0,0,6,11,1,10,0,10.8,1.4,1.74,Dropout_Enrolled
1,1,1,9670,1,1,115,1,Basic,Basic,114.3,0,0,0,1,1,0,18,0,6,7,4,12.6,0,0,6,6,4,13,0,12.4,0.5,1.79,Dropout_Enrolled
1,43,1,9003,1,1,120,1,Secondary,Secondary,134.4,0,0,0,1,1,0,24,0,6,7,6,15.714286,0,0,6,10,6,15.9,0,15.5,2.8,-4.06,Dropout_Enrolled
1,7,1,9556,1,3,140,1,Higher,Higher,140,0,0,1,0,1,0,38,0,7,8,3,12.666667,0,0,5,5,0,0,0,13.9,-0.3,0.79,Dropout_Enrolled
1,16,2,9147,1,1,131,1,Basic,Basic,135.9,1,0,0,1,1,0,20,0,5,8,1,10,0,0,5,7,1,11,0,7.6,2.6,0.32,Dropout_Enrolled
1,1,5,9773,1,1,127,1,Basic,Secondary,121.1,1,0,0,1,0,0,18,0,6,6,6,13.166667,0,0,6,6,6,12.5,0,15.5,2.8,-4.06,Dropout_Enrolled
1,44,1,9085,1,39,140,1,Secondary,Higher,140,1,0,0,1,0,0,29,0,6,0,0,0,0,0,6,0,0,0,0,15.5,2.8,-4.06,Dropout_Enrolled
5,39,1,9147,1,1,133.1,1,Basic,Basic,119.8,0,0,0,1,1,0,26,0,5,9,5,12,0,0,5,5,5,10.2,0,11.1,0.6,2.02,Dropout_Enrolled
1,17,2,9238,1,1,118,1,Secondary,Basic,110.7,1,1,0,1,0,0,18,0,6,15,2,10.333333,3,0,6,13,3,13.333333,0,12.7,3.7,-1.7,Dropout_Enrolled
1,1,4,9119,1,1,120,1,Higher,Secondary,116.9,0,0,0,1,1,0,18,0,5,9,1,13,0,0,5,5,0,0,0,8.9,1.4,3.51,Dropout_Enrolled
1,39,1,9130,1,1,150,1,Basic,Basic,160,1,0,0,1,1,0,24,0,5,13,4,13.75,1,0,5,9,3,12,0,9.4,-0.8,-3.12,Dropout_Enrolled
1,1,1,9119,1,1,130,1,Basic,Basic,140.2,1,0,0,1,1,0,20,0,5,5,0,0,0,0,5,0,0,0,0,9.4,-0.8,-3.12,Dropout_Enrolled
1,15,1,9119,1,1,133.1,41,Higher,Higher,100,0,0,1,1,1,0,24,2,8,8,7,13.142857,0,1,6,8,6,11.833333,0,8.9,1.4,3.51,Dropout_Enrolled
1,39,1,9085,1,12,133.1,1,Basic,Basic,138.3,1,0,1,0,1,0,25,0,6,6,0,0,0,0,6,6,0,0,0,8.9,1.4,3.51,Dropout_Enrolled
4,43,1,9853,1,1,133.1,100,Basic,Secondary,100,0,0,0,1,0,0,33,0,6,6,6,12.166667,0,0,6,9,3,11,0,7.6,2.6,0.32,Dropout_Enrolled
1,1,6,9500,1,1,142,1,Secondary,Basic,123.5,1,0,0,1,0,0,19,0,7,0,0,0,0,0,8,0,0,0,0,12.7,3.7,-1.7,Dropout_Enrolled
1,1,1,9500,1,1,149,1,Basic,Basic,138,0,0,0,1,1,0,18,0,8,11,6,13.496667,1,0,8,11,6,13.496667,1,9.4,-0.8,-3.12,Dropout_Enrolled
1,17,1,9085,1,1,137,1,Basic,Basic,122.3,0,0,0,1,0,1,19,0,5,5,5,12.6,0,0,5,9,3,13,0,7.6,2.6,0.32,Dropout_Enrolled
1,7,1,9991,0,40,150,1,Basic,Basic,150,1,0,0,1,1,0,44,3,7,9,7,13.5,0,0,5,6,5,16.2,0,8.9,1.4,3.51,Dropout_Enrolled
1,17,1,9147,1,1,133.1,1,Secondary,Basic,95,0,0,0,1,1,0,20,0,5,14,0,0,0,0,5,5,0,0,0,11.1,0.6,2.02,Dropout_Enrolled
1,44,1,9238,1,39,140,1,Basic,Basic,136.1,1,0,1,1,0,0,21,3,6,8,3,12,0,2,6,6,2,12.5,0,12.4,0.5,1.79,Dropout_Enrolled
1,1,5,9500,1,1,141,1,Basic,Basic,142.3,1,0,0,1,0,0,18,0,8,8,8,12.82875,0,0,8,8,8,12.82875,0,9.4,-0.8,-3.12,Dropout_Enrolled
1,17,1,9238,1,1,154,1,Basic,Basic,140.4,1,0,0,1,0,1,20,0,6,13,2,10,0,0,6,12,4,10.75,0,7.6,2.6,0.32,Dropout_Enrolled
1,1,1,9147,1,1,143,1,Higher,Secondary,152.1,1,0,1,1,1,0,18,0,5,15,4,13.333333,0,0,5,6,2,13.5,0,13.9,-0.3,0.79,Dropout_Enrolled
1,43,1,9773,1,1,121,1,Secondary,Higher,123.8,0,0,0,0,1,0,22,0,4,4,0,0,4,0,5,8,3,12,0,10.8,1.4,1.74,Dropout_Enrolled
2,39,1,9853,1,19,133.1,1,Basic,Basic,100,0,0,0,1,0,0,45,0,6,11,3,12.333333,0,0,6,13,2,11,0,7.6,2.6,0.32,Dropout_Enrolled
1,17,1,9254,1,1,137,1,Unknown,Basic,137.7,1,0,1,0,0,0,19,0,6,14,1,10,0,0,6,13,0,0,0,7.6,2.6,0.32,Dropout_Enrolled
1,17,1,9991,0,1,140,1,Basic,Basic,127.3,0,0,0,1,0,0,20,0,5,0,0,0,0,0,5,0,0,0,0,11.1,0.6,2.02,Dropout_Enrolled
1,44,1,9003,1,39,140,1,Basic,Basic,140,0,0,0,1,0,0,19,0,6,18,3,11.666667,0,0,6,14,4,11.5,0,15.5,2.8,-4.06,Dropout_Enrolled
1,39,1,9119,1,1,160,1,Secondary,Basic,112,0,0,0,0,1,0,25,0,5,8,0,0,0,0,5,5,0,0,0,9.4,-0.8,-3.12,Dropout_Enrolled
6,39,1,8014,0,1,133.1,1,Basic,Basic,119,0,0,0,1,0,1,48,0,6,7,6,10.666667,0,0,6,9,5,11.8,0,10.8,1.4,1.74,Dropout_Enrolled
1,39,1,9853,1,1,140,1,Basic,Secondary,128.2,0,0,0,0,0,0,30,0,6,0,0,0,0,0,6,0,0,0,0,12.7,3.7,-1.7,Dropout_Enrolled
1,17,1,9773,1,1,128,1,Basic,Basic,125.6,1,0,0,1,1,0,19,0,6,6,0,0,0,0,6,0,0,0,0,8.9,1.4,3.51,Dropout_Enrolled
1,1,1,171,1,1,133.1,1,Basic,Basic,136,1,0,0,1,1,0,22,0,0,0,0,0,0,0,0,0,0,0,0,12.7,3.7,-1.7,Dropout_Enrolled
1,43,1,9556,1,1,128,1,Basic,Basic,123.5,1,0,0,1,0,0,22,0,7,14,6,10.744444,1,0,8,10,8,11.8375,0,12.7,3.7,-1.7,Dropout_Enrolled
1,17,1,9085,1,1,127,1,Basic,Basic,117.6,0,0,0,1,0,0,18,0,6,0,0,0,0,0,6,0,0,0,0,12.4,0.5,1.79,Dropout_Enrolled
1,39,1,9085,1,1,133.1,1,Higher,Basic,110,0,0,0,1,0,0,28,0,6,15,4,12,0,0,6,14,4,12,0,11.1,0.6,2.02,Dropout_Enrolled
1,39,1,9003,1,1,110,1,Secondary,Secondary,120,0,0,1,0,1,0,27,0,6,0,0,0,0,0,6,0,0,0,0,13.9,-0.3,0.79,Dropout_Enrolled
2,43,1,9003,1,1,149,1,Secondary,Secondary,156.1,1,0,0,0,1,0,29,0,6,6,0,0,0,0,6,8,0,0,0,15.5,2.8,-4.06,Dropout_Enrolled
1,44,1,9130,1,39,150,1,Basic,Basic,150,1,0,0,1,1,0,21,1,6,8,6,12.5,0,0,6,11,3,13.333333,0,13.9,-0.3,0.79,Dropout_Enrolled
1,43,5,9853,1,1,150,1,Unknown,Unknown,150.2,1,0,0,0,0,0,28,0,6,9,4,12.75,1,0,5,5,0,0,5,9.4,-0.8,-3.12,Dropout_Enrolled
1,17,1,9556,1,1,140,1,Higher,Higher,131.6,1,0,0,1,1,0,19,0,7,0,0,0,0,0,7,0,0,0,0,11.1,0.6,2.02,Dropout_Enrolled
1,44,1,9003,1,39,120,1,Secondary,Basic,120,0,0,0,1,1,0,22,2,6,15,3,11.75,0,0,6,12,2,10,0,13.9,-0.3,0.79,Dropout_Enrolled
2,39,1,8014,0,19,133.1,1,Basic,Basic,151.5,0,0,1,0,1,0,45,0,6,7,0,0,0,0,5,5,0,0,0,16.2,0.3,-0.92,Dropout_Enrolled
1,17,1,9254,1,1,113,1,Secondary,Basic,117.2,1,0,0,1,0,0,20,0,6,8,5,11.2,0,0,6,12,3,11.666667,0,7.6,2.6,0.32,Dropout_Enrolled
1,1,4,9500,1,1,144,1,Higher,Secondary,129,1,0,0,1,0,0,18,0,7,8,7,12.65,0,0,8,9,8,13.411111,0,16.2,0.3,-0.92,Dropout_Enrolled
1,43,1,9556,1,1,147,1,Higher,Higher,100,0,0,0,1,0,0,18,0,2,2,0,0,0,0,4,4,1,16,0,10.8,1.4,1.74,Dropout_Enrolled
2,39,1,9085,1,1,133.1,1,Basic,Basic,128.2,0,0,0,0,0,1,28,0,5,14,1,12,3,0,5,5,0,0,5,9.4,-0.8,-3.12,Dropout_Enrolled
1,17,1,9853,1,1,120,1,Basic,Basic,122.6,0,0,0,1,0,0,20,0,6,8,3,12.333333,0,0,6,11,2,10.5,0,12.7,3.7,-1.7,Dropout_Enrolled
1,43,1,9238,1,1,109,1,Basic,Basic,108.3,0,0,0,1,0,1,21,0,6,15,2,10.5,0,0,6,8,5,12.4,0,10.8,1.4,1.74,Dropout_Enrolled
1,43,1,9070,1,1,125,1,Basic,Basic,133.4,1,0,0,1,1,1,19,4,6,6,4,13,0,2,6,7,5,12.2,0,13.9,-0.3,0.79,Dropout_Enrolled
1,17,2,9500,1,1,122,1,Basic,Basic,131,1,0,0,1,0,0,18,0,7,7,6,12.516667,1,0,7,7,6,12.516667,1,7.6,2.6,0.32,Dropout_Enrolled
1,1,3,9500,1,1,125,1,Higher,Secondary,119.4,1,0,0,1,0,0,19,0,7,10,6,12.471429,0,0,7,8,7,11.4625,0,12.4,0.5,1.79,Dropout_Enrolled
1,17,1,171,1,1,136,1,Basic,Basic,127.3,1,0,0,1,0,0,19,0,0,0,0,0,0,0,0,0,0,0,0,15.5,2.8,-4.06,Dropout_Enrolled
1,39,1,9070,1,1,139.3,1,Basic,Basic,117.5,0,0,0,1,1,0,28,0,6,0,0,0,0,0,6,0,0,0,0,12.4,0.5,1.79,Dropout_Enrolled
1,39,1,9670,1,1,120,1,Unknown,Unknown,106,1,0,0,0,1,0,28,0,5,7,3,11.666667,0,0,5,8,2,11.5,1,7.6,2.6,0.32,Dropout_Enrolled
1,43,1,9254,1,1,134,1,Basic,Basic,133.3,1,0,1,1,0,0,19,0,6,13,2,11.5,0,0,6,13,1,11,0,7.6,2.6,0.32,Dropout_Enrolled
1,17,1,171,1,1,130,1,Higher,Secondary,126.9,1,0,0,1,0,0,20,0,0,0,0,0,0,0,0,0,0,0,0,12.7,3.7,-1.7,Dropout_Enrolled
1,39,1,9119,1,3,130,1,Secondary,Basic,143.4,0,0,0,1,1,0,29,0,3,3,0,0,3,0,5,0,0,0,0,10.8,1.4,1.74,Dropout_Enrolled
1,39,1,9003,1,1,133.1,1,Basic,Basic,130,0,0,1,0,1,0,32,0,6,8,3,13,0,4,10,14,6,11.428571,0,16.2,0.3,-0.92,Dropout_Enrolled
1,15,1,9119,1,1,133.1,41,Secondary,Higher,100,0,0,1,1,1,0,21,0,5,5,0,0,0,0,6,8,0,0,0,11.1,0.6,2.02,Dropout_Enrolled
1,17,2,9853,1,1,114,1,Secondary,Basic,111.9,1,0,0,1,1,1,20,0,6,6,6,12,0,0,6,7,6,12.5,0,7.6,2.6,0.32,Dropout_Enrolled
1,17,4,9147,1,1,135,1,Basic,Secondary,128.7,1,0,0,1,1,0,22,0,5,8,2,10.5,0,0,5,10,0,0,0,7.6,2.6,0.32,Dropout_Enrolled
1,1,1,9238,1,1,116,1,Basic,Basic,110.8,1,0,0,1,1,0,19,0,6,0,0,0,0,0,6,0,0,0,0,16.2,0.3,-0.92,Dropout_Enrolled
1,39,1,9991,0,1,110,1,Basic,Basic,134.3,0,0,0,1,1,0,24,0,5,10,0,0,0,0,5,7,1,12,0,10.8,1.4,1.74,Dropout_Enrolled
1,1,3,9070,1,1,125,1,Secondary,Basic,118,0,0,0,1,0,1,18,0,6,6,6,14.333333,0,0,6,7,6,14,0,11.1,0.6,2.02,Dropout_Enrolled
2,39,1,9773,1,1,110,1,Basic,Basic,140,0,0,1,0,1,0,43,0,6,16,2,10,0,0,6,12,4,12.25,0,10.8,1.4,1.74,Dropout_Enrolled
2,39,1,9991,0,3,130,1,Higher,Secondary,160,0,0,0,1,0,0,30,0,5,5,5,14.6,0,0,5,5,5,15.4,0,12.7,3.7,-1.7,Dropout_Enrolled
1,44,1,9070,1,39,100,1,Secondary,Basic,104.8,0,0,1,0,0,0,22,2,7,9,5,11.6,0,5,9,9,5,10,0,12.4,0.5,1.79,Dropout_Enrolled
1,44,1,9085,1,39,140,1,Higher,Basic,140,1,0,0,1,0,0,21,0,6,11,4,12.75,0,0,6,19,1,11,0,12.4,0.5,1.79,Dropout_Enrolled
1,1,1,171,1,1,159,1,Higher,Higher,165.7,1,0,0,1,1,0,18,0,0,0,0,0,0,0,0,0,0,0,0,9.4,-0.8,-3.12,Dropout_Enrolled
1,44,1,9003,1,1,120,1,Secondary,Higher,120,0,0,0,1,1,0,19,0,6,17,1,11,0,0,6,19,0,0,0,16.2,0.3,-0.92,Dropout_Enrolled
1,18,3,9670,1,1,119,1,Basic,Basic,115.2,1,0,0,1,0,1,19,0,6,10,0,0,0,0,6,6,0,0,0,12.7,3.7,-1.7,Dropout_Enrolled
1,1,1,171,1,1,170,1,Basic,Basic,176.7,1,0,0,1,0,1,19,0,0,0,0,0,0,0,0,0,0,0,0,11.1,0.6,2.02,Dropout_Enrolled
1,1,1,9853,1,1,123,1,Secondary,Basic,121.6,1,0,0,1,0,0,18,0,7,12,5,12,0,0,7,9,6,12.666667,0,11.1,0.6,2.02,Dropout_Enrolled
1,1,2,9238,1,1,147,1,Basic,Basic,135.8,1,0,0,1,0,1,19,0,6,8,6,12.714286,0,0,6,12,5,11,0,13.9,-0.3,0.79,Dropout_Enrolled
2,39,1,9085,1,1,120,1,Basic,Basic,130,0,0,0,1,0,0,29,0,5,8,5,15.333333,2,0,5,6,5,15.4,0,9.4,-0.8,-3.12,Dropout_Enrolled
1,1,5,9070,1,1,122,1,Basic,Basic,124.8,1,0,0,0,1,0,19,0,6,0,0,0,0,0,6,0,0,0,0,10.8,1.4,1.74,Dropout_Enrolled
1,39,1,9500,1,19,133.1,1,Secondary,Higher,100,0,0,1,1,1,0,24,0,7,21,0,0,3,0,7,7,0,0,0,16.2,0.3,-0.92,Dropout_Enrolled
1,17,1,9070,1,1,108,1,Basic,Secondary,111.9,0,0,0,1,0,0,19,0,6,0,0,0,0,0,6,0,0,0,0,8.9,1.4,3.51,Dropout_Enrolled
1,17,1,9254,1,1,150,1,Secondary,Secondary,142.7,0,0,1,1,0,0,18,0,6,9,4,11,0,0,6,12,3,11.333333,0,7.6,2.6,0.32,Dropout_Enrolled
1,1,1,9130,1,1,133.1,1,Secondary,Secondary,138,1,0,0,1,0,0,20,0,6,11,6,13.333333,0,0,6,10,6,13,0,16.2,0.3,-0.92,Dropout_Enrolled
1,1,1,9238,1,1,132,1,Basic,Basic,129.9,1,0,0,1,0,0,20,0,6,7,5,13.2,0,0,6,6,6,12.666667,0,10.8,1.4,1.74,Dropout_Enrolled
1,39,1,9991,0,3,120,1,Basic,Secondary,134,0,0,0,1,0,0,25,0,5,14,1,11,0,0,5,11,2,12.666667,4,16.2,0.3,-0.92,Dropout_Enrolled
1,17,1,9238,1,1,160,1,Basic,Basic,144.3,0,0,0,1,1,0,22,0,6,0,0,0,0,0,6,0,0,0,0,13.9,-0.3,0.79,Dropout_Enrolled
1,1,2,9670,1,1,122,1,Secondary,Secondary,116.1,1,0,0,1,1,1,18,0,5,6,4,12.25,0,0,5,5,5,12.2,0,9.4,-0.8,-3.12,Dropout_Enrolled
1,39,1,9500,1,1,130,1,Basic,Basic,129,0,0,1,0,0,0,26,0,7,11,4,12.86,0,0,7,10,5,11.566667,0,12.4,0.5,1.79,Dropout_Enrolled
4,39,1,9670,1,1,140,1,Higher,Secondary,170,0,0,1,0,1,0,53,0,6,11,3,14.333333,0,0,6,6,0,0,0,12.7,3.7,-1.7,Dropout_Enrolled
1,1,3,9500,1,1,140,6,Higher,Higher,124.3,1,0,0,1,0,0,19,0,7,9,5,12.32,0,0,7,9,5,11.9,0,12.4,0.5,1.79,Dropout_Enrolled
1,53,1,9991,0,1,140,1,Basic,Basic,135,0,0,1,1,0,0,23,6,11,18,8,12.375,0,3,9,15,5,12.6,0,8.9,1.4,3.51,Dropout_Enrolled
1,44,1,9085,1,39,130,6,Basic,Secondary,130,1,0,0,1,0,0,22,0,6,12,5,12.8,0,0,6,19,2,11.5,0,12.4,0.5,1.79,Dropout_Enrolled
1,1,3,9070,1,1,146,1,Unknown,Unknown,143.6,1,0,0,1,0,0,18,0,6,6,6,12.5,0,0,6,6,6,13,0,7.6,2.6,0.32,Dropout_Enrolled
2,7,1,9147,1,3,140,1,Basic,Basic,140,0,0,0,1,0,0,23,0,5,0,0,0,0,0,5,0,0,0,0,7.6,2.6,0.32,Dropout_Enrolled
1,1,1,9254,1,1,122,1,Basic,Basic,114.3,1,0,0,0,0,1,20,0,6,12,4,11.25,0,0,6,12,3,11.333333,0,7.6,2.6,0.32,Dropout_Enrolled
1,1,1,9254,1,1,133.1,1,Higher,Basic,98,0,0,0,1,1,0,26,0,6,6,0,0,0,0,6,12,0,0,0,10.8,1.4,1.74,Dropout_Enrolled
1,7,1,9991,0,3,120,1,Basic,Basic,120,0,0,1,0,1,0,46,0,5,5,0,0,0,0,5,5,1,10,0,11.1,0.6,2.02,Dropout_Enrolled
1,39,1,9003,1,1,133.1,1,Basic,Basic,100,0,0,0,1,0,0,30,0,6,6,0,0,0,0,6,6,0,0,0,11.1,0.6,2.02,Dropout_Enrolled
1,7,1,9991,0,40,130,1,Secondary,Higher,130,0,0,0,1,1,0,27,0,5,0,0,0,0,0,5,0,0,0,0,8.9,1.4,3.51,Dropout_Enrolled
1,17,3,171,1,1,133,1,Secondary,Basic,126,1,0,0,1,1,1,19,0,0,0,0,0,0,0,0,0,0,0,0,10.8,1.4,1.74,Dropout_Enrolled
1,1,3,9254,1,1,129,1,Basic,Basic,122,1,0,0,1,0,1,18,0,6,9,6,10.833333,0,0,6,8,5,11,0,7.6,2.6,0.32,Dropout_Enrolled
1,1,3,9500,1,1,139,1,Secondary,Secondary,130.8,1,0,0,0,0,0,18,0,8,9,6,12.758333,1,0,8,9,6,12.758333,1,9.4,-0.8,-3.12,Dropout_Enrolled
1,1,1,9130,1,1,132,1,Secondary,Secondary,143.9,1,0,0,1,1,0,20,0,5,14,2,11,3,0,5,9,3,12.666667,0,9.4,-0.8,-3.12,Dropout_Enrolled
1,43,1,9500,1,1,136,1,Basic,Basic,118.4,1,0,0,1,0,0,21,0,7,12,4,13.125,0,0,7,8,6,12.333333,0,13.9,-0.3,0.79,Dropout_Enrolled
1,43,1,171,1,1,116,1,Higher,Secondary,117.3,1,0,1,1,0,0,20,0,0,0,0,0,0,0,0,0,0,0,0,13.9,-0.3,0.79,Dropout_Enrolled
1,17,1,9254,1,1,122,1,Secondary,Secondary,112.9,1,0,0,1,0,0,22,0,6,14,4,12.25,0,0,6,11,3,11.333333,0,7.6,2.6,0.32,Dropout_Enrolled
1,17,1,9119,1,1,132,1,Basic,Basic,119.4,1,0,0,1,1,0,21,0,5,8,0,0,0,0,5,5,0,0,0,7.6,2.6,0.32,Dropout_Enrolled
2,43,1,9773,1,1,160,1,Basic,Basic,160,0,0,1,0,1,0,51,0,4,4,0,0,0,0,4,4,0,0,0,12.7,3.7,-1.7,Dropout_Enrolled
1,39,1,8014,0,15,133.1,1,Unknown,Unknown,100,1,0,0,0,0,0,37,0,5,9,0,0,0,0,5,5,0,0,5,9.4,-0.8,-3.12,Dropout_Enrolled
1,1,1,9070,1,1,160,1,Higher,Basic,152,1,0,0,0,0,0,19,0,5,5,0,0,0,0,6,0,0,0,0,10.8,1.4,1.74,Dropout_Enrolled
1,39,1,9254,1,1,160,1,Basic,Basic,100,0,0,0,1,1,0,26,0,6,7,6,12,0,0,6,8,5,10.8,0,12.7,3.7,-1.7,Dropout_Enrolled
1,44,1,9003,1,39,140,1,Secondary,Basic,140,0,0,0,1,1,0,25,0,6,16,3,11.25,0,0,6,14,4,11.2,0,15.5,2.8,-4.06,Dropout_Enrolled
1,39,1,9130,1,10,133.1,1,Secondary,Basic,128.2,0,0,0,0,1,1,30,0,5,13,0,0,3,0,5,5,0,0,5,9.4,-0.8,-3.12,Dropout_Enrolled
1,44,1,9085,1,1,130,1,Secondary,Secondary,130,1,0,0,1,0,0,20,0,6,13,5,11.8,0,0,6,19,4,12,0,12.4,0.5,1.79,Dropout_Enrolled
1,7,1,9130,1,3,140,1,Basic,Basic,140,1,0,0,1,0,0,23,0,6,0,0,0,0,0,6,0,0,0,0,12.4,0.5,1.79,Dropout_Enrolled
1,17,2,9254,1,1,113,1,Secondary,Higher,106.7,1,0,1,1,1,1,19,0,6,14,2,10,0,0,6,6,0,0,0,13.9,-0.3,0.79,Dropout_Enrolled
1,1,3,9500,1,1,128,1,Secondary,Secondary,120.5,1,0,0,1,0,1,19,0,7,10,5,13.04,0,0,7,7,7,12.5,0,12.4,0.5,1.79,Dropout_Enrolled
1,17,1,9119,1,1,127,1,Basic,Secondary,115.8,0,0,0,1,1,0,20,0,5,10,4,11.5,0,0,5,11,0,0,0,13.9,-0.3,0.79,Dropout_Enrolled
1,17,2,9147,1,1,123,1,Secondary,Basic,115.3,1,0,0,1,0,1,18,0,5,9,3,13,0,0,5,11,3,11,0,8.9,1.4,3.51,Dropout_Enrolled
1,1,1,9670,1,1,123,1,Basic,Basic,113.9,1,0,1,0,0,0,18,0,6,7,4,11.25,0,0,6,9,4,10.857143,0,10.8,1.4,1.74,Dropout_Enrolled
1,42,1,9500,1,1,100,1,Higher,Basic,153,0,0,0,1,1,0,22,3,6,7,3,14.5,0,4,7,8,4,14.375,0,15.5,2.8,-4.06,Dropout_Enrolled
1,18,1,9238,1,1,147,1,Basic,Unknown,130.2,0,0,0,1,0,0,18,0,1,1,0,0,1,0,6,0,0,0,0,10.8,1.4,1.74,Dropout_Enrolled
1,1,6,9254,1,1,119,1,Basic,Basic,118.7,1,0,0,1,1,0,20,0,6,16,3,10.333333,0,0,6,16,1,11,0,10.8,1.4,1.74,Dropout_Enrolled
1,1,2,9147,1,1,121,1,Secondary,Basic,113.7,1,0,0,0,0,0,20,0,5,10,2,10,0,0,5,12,1,13,0,7.6,2.6,0.32,Dropout_Enrolled
1,43,4,171,1,1,136,1,Basic,Basic,123.8,1,0,0,1,1,0,19,0,0,0,0,0,0,0,0,0,0,0,0,7.6,2.6,0.32,Dropout_Enrolled
1,39,1,9991,0,1,110,1,Basic,Basic,150,0,0,0,0,0,0,48,0,5,5,1,10,0,0,5,5,0,0,0,15.5,2.8,-4.06,Dropout_Enrolled
1,17,3,9500,1,1,138,1,Higher,Higher,130,1,0,0,1,0,0,18,0,7,8,7,14.85,0,0,8,8,8,15.2,0,13.9,-0.3,0.79,Dropout_Enrolled
1,44,1,9070,1,39,100,1,Secondary,Secondary,106,0,0,0,1,1,0,21,2,7,7,5,11.8,0,5,9,9,5,11,0,12.4,0.5,1.79,Dropout_Enrolled
1,1,1,9130,1,1,126,1,Basic,Secondary,122.5,1,0,0,0,0,0,25,0,5,14,4,13.5,2,0,5,10,4,14.25,0,9.4,-0.8,-3.12,Dropout_Enrolled
1,1,2,9773,1,1,125,1,Basic,Secondary,122.2,1,0,0,1,0,0,18,0,6,0,0,0,0,0,6,0,0,0,0,11.1,0.6,2.02,Dropout_Enrolled
1,17,4,9254,1,1,124,1,Higher,Higher,126.1,1,0,0,1,0,0,20,0,5,5,5,11.4,0,0,6,11,1,11,0,10.8,1.4,1.74,Dropout_Enrolled
1,43,2,9500,1,1,136,1,Basic,Secondary,124.1,0,0,0,1,1,1,21,0,8,8,0,0,8,0,8,8,0,0,8,9.4,-0.8,-3.12,Dropout_Enrolled
1,1,1,171,1,1,130,1,Secondary,Basic,135.6,1,0,0,1,1,0,26,0,0,0,0,0,0,0,0,0,0,0,0,11.1,0.6,2.02,Dropout_Enrolled
1,7,1,9254,1,3,110,1,Basic,Basic,110,0,0,0,1,1,0,35,0,6,7,0,0,0,0,6,6,0,0,0,16.2,0.3,-0.92,Dropout_Enrolled
1,17,1,9670,1,1,138,1,Secondary,Secondary,123,0,0,1,0,1,0,20,0,6,7,5,12.4,0,0,6,8,4,13,0,13.9,-0.3,0.79,Dropout_Enrolled
1,43,1,9070,1,1,117,1,Secondary,Secondary,112.5,1,0,0,1,1,0,19,3,6,7,3,11.666667,0,1,6,13,4,10.333333,0,13.9,-0.3,0.79,Dropout_Enrolled
4,39,1,9991,0,1,133.1,1,Basic,Basic,130.4,0,0,0,1,0,0,30,0,5,10,3,10.666667,0,0,5,8,5,10.4,0,12.7,3.7,-1.7,Dropout_Enrolled
1,51,1,9238,1,1,122,1,Basic,Higher,112.6,0,0,1,1,0,0,20,5,11,18,8,12.625,0,4,10,10,3,11,0,11.1,0.6,2.02,Dropout_Enrolled
1,51,1,9773,1,1,158,1,Secondary,Basic,117.1,1,0,0,1,1,0,20,1,7,7,6,13.833333,0,1,6,7,5,13,0,8.9,1.4,3.51,Dropout_Enrolled
1,1,1,9500,1,1,125,1,Basic,Basic,118.3,0,0,0,1,1,0,20,0,8,12,5,12.002,1,0,8,12,5,12.002,1,10.8,1.4,1.74,Dropout_Enrolled
1,18,1,9147,1,1,119,1,Basic,Basic,112,1,0,0,0,1,0,20,0,5,5,0,0,0,0,5,0,0,0,0,9.4,-0.8,-3.12,Dropout_Enrolled
1,1,1,9130,1,1,132,1,Higher,Higher,119.1,1,0,1,1,0,0,29,0,5,10,1,13,4,0,5,14,0,0,8,10.8,1.4,1.74,Dropout_Enrolled
1,17,1,8014,0,1,119,1,Unknown,Unknown,112.4,1,0,0,1,0,0,26,4,7,15,7,11.571429,0,2,6,14,2,11,0,7.6,2.6,0.32,Dropout_Enrolled
1,18,5,9500,1,1,137,1,Basic,Secondary,129.3,0,0,0,1,0,0,19,0,7,0,0,0,0,0,8,0,0,0,0,9.4,-0.8,-3.12,Dropout_Enrolled
1,1,1,9238,1,1,127,1,Secondary,Basic,141.7,1,0,0,1,1,0,22,0,6,6,6,12.666667,0,0,6,6,6,13.833333,0,10.8,1.4,1.74,Dropout_Enrolled
1,18,3,9773,1,1,128,1,Basic,Secondary,122.1,1,0,0,1,1,0,19,0,6,9,4,12.5,0,0,6,6,6,11.333333,0,10.8,1.4,1.74,Dropout_Enrolled
1,39,1,9670,1,9,133.1,1,Basic,Basic,110,0,0,1,1,1,0,26,0,5,5,0,0,0,0,5,5,0,0,0,9.4,-0.8,-3.12,Dropout_Enrolled
1,1,1,171,1,1,137,1,Higher,Basic,122.3,0,0,0,1,0,0,19,0,0,0,0,0,0,0,0,0,0,0,0,10.8,1.4,1.74,Dropout_Enrolled
1,17,1,9147,1,1,139,1,Secondary,Basic,143.6,1,0,1,1,1,0,18,0,5,9,0,0,0,0,5,5,0,0,0,7.6,2.6,0.32,Dropout_Enrolled
1,1,1,9070,1,1,133.1,1,Secondary,Basic,143,1,0,1,1,0,0,21,0,6,9,5,11.4,0,0,6,8,5,12.2,0,12.7,3.7,-1.7,Dropout_Enrolled
1,39,1,9991,0,1,150,1,Basic,Basic,140.9,0,1,0,1,0,0,24,0,5,7,3,10.666667,0,0,5,7,3,10.5,0,10.8,1.4,1.74,Dropout_Enrolled
1,1,1,9853,1,1,162,1,Basic,Basic,142.8,0,0,1,1,0,0,18,0,6,10,5,13,0,0,6,10,4,11.5,0,12.7,3.7,-1.7,Dropout_Enrolled
1,43,1,9147,1,1,133.1,1,Higher,Basic,128.2,0,0,0,1,0,0,23,7,11,18,11,15.090909,1,2,6,7,6,14.5,0,9.4,-0.8,-3.12,Dropout_Enrolled
1,39,1,9119,1,1,120,1,Basic,Basic,100,0,0,1,1,1,0,24,0,5,11,0,0,0,0,5,5,0,0,0,16.2,0.3,-0.92,Dropout_Enrolled
1,17,2,9085,1,1,123,1,Higher,Basic,118.9,0,0,0,1,1,0,18,0,5,5,3,14,0,0,5,7,3,12.666667,0,7.6,2.6,0.32,Dropout_Enrolled
1,17,1,9238,1,1,128,1,Basic,Basic,118.6,1,0,0,1,0,1,21,0,6,8,5,13.2,0,0,6,7,5,11.8,0,8.9,1.4,3.51,Dropout_Enrolled
1,1,1,9670,1,1,119,1,Basic,Basic,119.7,1,0,0,1,0,0,20,0,5,6,3,13,0,0,5,7,3,13,1,7.6,2.6,0.32,Dropout_Enrolled
1,1,3,9500,1,1,136,1,Secondary,Basic,131.1,1,0,0,1,0,0,19,0,7,9,6,13.411429,0,0,8,12,7,13.294444,0,15.5,2.8,-4.06,Dropout_Enrolled
2,7,1,9500,1,3,130,1,Basic,Basic,130,0,0,0,1,0,0,32,0,7,9,7,13.761111,0,1,8,11,7,12.06375,0,15.5,2.8,-4.06,Dropout_Enrolled
1,44,1,9085,1,39,150,1,Basic,Secondary,150,0,0,0,1,0,0,20,0,5,10,2,14.5,1,0,5,7,4,11.25,0,12.7,3.7,-1.7,Dropout_Enrolled
1,1,1,171,1,1,131,1,Basic,Basic,132.8,1,0,0,1,0,0,18,0,0,0,0,0,0,0,0,0,0,0,0,7.6,2.6,0.32,Dropout_Enrolled
2,42,1,9254,1,1,136,1,Higher,Higher,130,1,0,0,1,1,0,22,2,6,13,4,11.5,0,2,6,12,2,12.5,0,7.6,2.6,0.32,Dropout_Enrolled
1,1,1,171,1,1,140,1,Basic,Basic,137.9,1,0,1,0,0,0,18,0,0,0,0,0,0,0,0,0,0,0,0,8.9,1.4,3.51,Dropout_Enrolled
1,39,1,9991,0,19,133.1,1,Basic,Basic,149.4,0,0,0,0,1,0,29,0,5,11,2,11.333333,0,0,5,9,1,12,0,11.1,0.6,2.02,Dropout_Enrolled
2,39,1,9991,0,1,110,1,Basic,Basic,120,1,0,0,1,0,0,38,0,5,11,3,11.333333,0,0,5,9,4,12,0,9.4,-0.8,-3.12,Dropout_Enrolled
1,7,1,171,1,3,130,1,Secondary,Higher,130,0,0,0,0,1,0,18,0,0,0,0,0,0,0,0,0,0,0,0,9.4,-0.8,-3.12,Dropout_Enrolled
1,18,3,9070,1,1,134,1,Secondary,Secondary,121.4,0,0,0,1,0,0,18,0,6,6,2,12,0,0,6,6,1,11,0,9.4,-0.8,-3.12,Dropout_Enrolled
1,53,1,9085,1,42,140,1,Secondary,Secondary,143.3,1,0,0,0,0,0,23,7,12,19,9,13.666667,0,4,9,15,6,13.5,0,8.9,1.4,3.51,Dropout_Enrolled
1,1,1,9500,1,1,142,1,Secondary,Basic,127,0,0,1,0,1,0,21,0,7,12,4,12.94,0,0,7,12,4,11.58,0,12.4,0.5,1.79,Dropout_Enrolled
2,43,1,9991,0,1,114,1,Basic,Basic,116.7,0,0,0,1,1,0,49,0,5,7,4,13.333333,0,0,5,9,4,11.6,1,16.2,0.3,-0.92,Dropout_Enrolled
1,1,1,9670,1,1,136,1,Higher,Basic,129.7,1,0,0,1,1,0,19,0,6,10,4,12.5,0,0,6,12,1,10,3,16.2,0.3,-0.92,Dropout_Enrolled
1,44,1,9085,1,39,160,1,Secondary,Secondary,160,1,0,0,1,0,0,23,1,6,12,4,13.4,0,1,6,17,2,13.5,0,12.4,0.5,1.79,Dropout_Enrolled
1,44,1,9991,0,39,140,1,Basic,Basic,140,0,0,0,1,0,1,26,2,6,7,6,12.666667,0,2,6,7,6,13.166667,1,9.4,-0.8,-3.12,Dropout_Enrolled
1,1,3,9853,1,1,122,1,Higher,Higher,112.6,1,0,0,1,0,0,23,0,6,8,5,13.6,0,0,6,8,5,11.6,0,7.6,2.6,0.32,Dropout_Enrolled
1,1,1,9147,1,1,117,1,Basic,Basic,120.2,1,0,0,1,0,0,20,0,5,9,2,10,0,0,5,10,2,11,0,7.6,2.6,0.32,Dropout_Enrolled
1,39,1,9119,1,1,100,1,Basic,Basic,160,0,0,1,0,1,0,45,0,5,5,0,0,0,0,5,5,0,0,0,15.5,2.8,-4.06,Dropout_Enrolled
1,17,5,9119,1,1,130,1,Basic,Secondary,118.1,1,0,1,0,1,0,26,0,5,11,1,10,0,0,5,14,1,11,0,8.9,1.4,3.51,Dropout_Enrolled
1,39,1,9147,1,1,120,1,Basic,Basic,110,0,0,0,0,1,0,32,0,5,9,0,0,1,0,5,5,0,0,0,9.4,-0.8,-3.12,Dropout_Enrolled
1,39,2,9147,1,12,133.1,1,Basic,Basic,120,1,0,1,0,1,0,28,0,5,5,0,0,0,0,5,5,0,0,0,9.4,-0.8,-3.12,Dropout_Enrolled
1,15,1,9119,1,1,130,26,Basic,Higher,137,1,0,0,1,1,0,19,0,5,9,5,14,0,0,5,11,3,13.25,0,13.9,-0.3,0.79,Dropout_Enrolled
1,1,6,9147,1,1,142,1,Basic,Basic,134.3,0,1,0,1,1,0,21,0,5,0,0,0,0,0,5,0,0,0,0,10.8,1.4,1.74,Dropout_Enrolled
1,43,1,171,1,1,145,1,Basic,Basic,100,0,0,0,1,0,1,18,0,0,0,0,0,0,0,0,0,0,0,0,13.9,-0.3,0.79,Dropout_Enrolled
1,7,1,9119,1,3,130,1,Unknown,Unknown,130,0,0,0,1,1,0,26,0,5,5,0,0,0,0,5,6,0,0,0,10.8,1.4,1.74,Dropout_Enrolled
1,44,1,9853,1,39,150,1,Higher,Basic,150,0,0,0,1,0,0,19,0,6,0,0,0,0,0,6,0,0,0,0,12.4,0.5,1.79,Dropout_Enrolled
2,39,2,9147,1,1,120,1,Basic,Basic,104.7,1,0,0,1,1,0,36,0,4,4,0,0,0,0,5,9,0,0,0,10.8,1.4,1.74,Dropout_Enrolled
1,18,1,9119,1,1,122,1,Basic,Secondary,116.1,1,0,1,0,1,0,24,0,5,8,0,0,0,0,5,5,0,0,0,9.4,-0.8,-3.12,Dropout_Enrolled
1,43,1,171,1,2,140,1,Basic,Basic,140,1,0,0,1,0,0,34,0,0,0,0,0,0,0,0,0,0,0,0,10.8,1.4,1.74,Dropout_Enrolled
1,17,3,9147,1,1,112,1,Secondary,Basic,107.8,1,0,0,1,0,0,19,0,5,7,3,10.333333,0,0,5,11,3,14.428571,0,10.8,1.4,1.74,Dropout_Enrolled
1,39,1,171,1,1,116,1,Unknown,Unknown,127,1,0,0,1,1,0,38,0,0,0,0,0,0,0,0,0,0,0,0,7.6,2.6,0.32,Dropout_Enrolled
1,17,1,9147,1,1,120,1,Basic,Basic,113.4,0,0,0,1,0,0,20,0,5,11,3,10.333333,0,0,5,10,3,10.666667,0,12.4,0.5,1.79,Dropout_Enrolled
1,1,1,9147,1,1,133.1,1,Basic,Basic,119,1,0,0,0,0,1,19,0,5,7,3,10.666667,0,0,5,10,3,12.285714,0,10.8,1.4,1.74,Dropout_Enrolled
1,17,3,9853,1,1,138,1,Basic,Basic,125.1,1,1,0,1,0,1,19,0,6,6,6,13.5,0,0,6,8,5,12.8,0,12.7,3.7,-1.7,Dropout_Enrolled
1,17,1,9147,1,1,120,1,Higher,Basic,124.2,1,0,0,1,1,0,18,0,5,13,5,12,0,0,5,9,4,11.4,0,13.9,-0.3,0.79,Dropout_Enrolled
2,39,1,9991,0,1,160,1,Secondary,Higher,130,0,0,0,0,1,1,26,0,5,12,3,10.666667,0,0,5,11,3,10.666667,0,9.4,-0.8,-3.12,Dropout_Enrolled
1,7,1,9119,1,3,130,1,Basic,Basic,130,0,0,0,0,1,0,33,0,5,6,0,0,0,0,5,5,0,0,0,12.7,3.7,-1.7,Dropout_Enrolled
1,1,1,9085,1,1,147,1,Basic,Basic,133.7,1,0,0,1,0,1,19,0,5,10,2,13.5,0,0,5,11,5,11.4,1,10.8,1.4,1.74,Dropout_Enrolled
1,44,1,9119,1,39,130,1,Basic,Basic,130,1,0,0,1,1,0,19,0,5,9,2,12.5,0,0,5,10,3,11.6,0,12.4,0.5,1.79,Dropout_Enrolled
1,1,2,9147,1,1,122,1,Secondary,Basic,116.4,0,0,0,1,1,0,21,0,5,10,3,11.25,0,0,5,9,3,11,0,15.5,2.8,-4.06,Dropout_Enrolled
1,1,1,9238,1,1,133.1,1,Basic,Secondary,101,0,0,0,1,0,0,21,0,6,0,0,0,0,0,6,0,0,0,0,15.5,2.8,-4.06,Dropout_Enrolled
1,39,1,9500,1,19,133.1,1,Secondary,Basic,111.8,1,0,0,1,0,0,27,0,7,0,0,0,0,0,8,0,0,0,0,11.1,0.6,2.02,Dropout_Enrolled
1,7,1,9500,1,3,140,1,Secondary,Secondary,140,0,0,0,1,0,0,33,2,7,8,6,14.35,0,3,8,10,6,14.583333,0,16.2,0.3,-0.92,Dropout_Enrolled
1,17,2,9254,1,1,129,1,Secondary,Basic,122,1,0,0,1,0,0,18,0,6,15,2,10,0,0,6,12,0,0,0,10.8,1.4,1.74,Dropout_Enrolled
1,39,1,9085,1,1,133.1,1,Secondary,Basic,162.3,1,0,0,1,0,0,24,0,6,10,2,11,0,0,6,6,0,0,0,8.9,1.4,3.51,Dropout_Enrolled
1,17,1,171,1,1,132,1,Secondary,Basic,127.1,0,0,0,0,1,0,21,0,0,0,0,0,0,0,0,0,0,0,0,7.6,2.6,0.32,Dropout_Enrolled
1,1,3,9070,1,1,110,1,Basic,Basic,107.6,1,0,0,1,1,1,22,0,6,6,6,11.666667,0,0,6,6,6,12.166667,0,7.6,2.6,0.32,Dropout_Enrolled
1,44,1,9003,1,39,130,1,Secondary,Higher,130,1,0,1,0,1,0,23,0,6,12,2,11.333333,0,0,6,8,2,13,0,13.9,-0.3,0.79,Dropout_Enrolled
1,1,1,9773,1,1,124,17,Secondary,Secondary,118.1,1,0,1,0,0,0,19,0,6,8,5,12.2,0,0,6,6,4,11.75,0,16.2,0.3,-0.92,Dropout_Enrolled
2,53,1,9147,1,42,130,1,Basic,Basic,132.4,0,0,0,1,0,0,30,6,11,20,9,12.222222,0,3,9,16,9,11.6,0,8.9,1.4,3.51,Dropout_Enrolled
1,44,1,9130,1,39,120,6,Higher,Higher,120,0,0,1,0,0,0,20,2,6,13,3,11.666667,0,1,6,11,3,12,0,12.4,0.5,1.79,Dropout_Enrolled
1,1,2,9147,1,1,116,1,Basic,Secondary,124.8,1,0,0,1,1,0,20,0,5,9,2,14.333333,0,0,5,10,2,12.5,0,7.6,2.6,0.32,Dropout_Enrolled
1,1,2,9147,1,1,125,1,Secondary,Basic,115.2,0,1,0,1,0,0,21,0,5,6,0,0,0,0,5,5,0,0,0,15.5,2.8,-4.06,Dropout_Enrolled
1,1,1,9500,1,1,118,1,Secondary,Secondary,115.7,0,0,0,1,1,0,20,0,7,9,5,12.7,0,0,8,9,7,13.475,0,13.9,-0.3,0.79,Dropout_Enrolled
1,18,3,9853,1,1,122,1,Basic,Basic,120.3,1,0,0,1,0,0,19,0,6,0,0,0,0,0,6,0,0,0,0,10.8,1.4,1.74,Dropout_Enrolled
1,1,1,9254,1,1,117,1,Basic,Basic,116.3,1,0,0,1,0,0,24,0,6,9,4,12.6,0,0,6,6,4,11.5,0,12.7,3.7,-1.7,Dropout_Enrolled
1,39,1,9556,1,1,120,1,Basic,Basic,122.8,0,0,0,1,0,0,26,0,7,12,6,12.166667,0,0,8,8,8,11.675,0,13.9,-0.3,0.79,Dropout_Enrolled
1,17,1,8014,0,1,127,1,Basic,Basic,115.8,0,0,0,1,0,0,24,0,6,12,1,12,0,0,6,12,0,0,0,10.8,1.4,1.74,Dropout_Enrolled
1,18,1,9500,1,1,128,1,Basic,Secondary,125.8,0,0,0,1,0,1,20,0,8,8,0,0,8,0,8,8,0,0,8,9.4,-0.8,-3.12,Dropout_Enrolled
1,1,1,9853,1,1,160,1,Secondary,Basic,146,1,0,0,1,0,0,19,0,6,11,3,10.333333,0,0,6,10,5,11.8,0,9.4,-0.8,-3.12,Dropout_Enrolled
2,39,1,9147,1,19,133.1,1,Basic,Basic,128,0,0,0,1,1,0,49,0,5,9,3,14,0,0,5,8,3,13.666667,0,8.9,1.4,3.51,Dropout_Enrolled
1,1,3,9500,1,1,154,1,Higher,Higher,129,1,0,0,1,0,0,18,0,8,9,6,13.345,2,0,8,9,6,13.345,2,9.4,-0.8,-3.12,Dropout_Enrolled
1,1,1,9670,1,1,124,1,Higher,Higher,124.7,1,0,0,1,1,0,21,0,5,7,3,11,0,0,5,5,4,12.75,0,7.6,2.6,0.32,Dropout_Enrolled
1,44,1,9130,1,39,130,1,Basic,Basic,130,1,0,0,1,0,1,20,0,6,11,4,12,0,0,6,9,4,10.75,0,16.2,0.3,-0.92,Dropout_Enrolled
1,1,1,9085,1,1,133.1,1,Higher,Secondary,105,1,0,0,1,1,0,21,0,6,15,3,11.25,0,0,6,9,0,0,0,12.4,0.5,1.79,Dropout_Enrolled
1,17,1,9238,1,1,135,1,Basic,Basic,127,0,0,0,1,0,0,21,0,6,0,0,0,0,0,6,0,0,0,0,16.2,0.3,-0.92,Dropout_Enrolled
1,43,1,9254,1,6,138.6,1,Unknown,Unknown,138.6,1,0,0,1,1,0,20,0,6,10,4,11.5,0,0,6,11,3,11.666667,0,7.6,2.6,0.32,Dropout_Enrolled
1,39,1,9147,1,1,110,1,Basic,Basic,110.3,0,0,1,0,1,0,26,0,5,5,0,0,0,0,5,9,0,0,0,10.8,1.4,1.74,Dropout_Enrolled
1,44,1,9119,1,39,160,1,Higher,Basic,160,0,0,1,0,1,0,24,2,6,6,2,16,0,2,7,7,2,16,0,8.9,1.4,3.51,Dropout_Enrolled
1,51,1,9670,1,1,136,1,Basic,Basic,122,0,0,1,0,0,0,18,0,5,6,2,12.5,0,0,5,6,4,10.25,0,9.4,-0.8,-3.12,Dropout_Enrolled
1,44,1,9003,1,39,150,1,Basic,Secondary,150,0,0,0,1,1,0,22,0,6,12,3,13.333333,0,0,6,12,3,12.75,0,15.5,2.8,-4.06,Dropout_Enrolled
1,17,6,9773,1,1,126,1,Secondary,Basic,119,1,0,0,1,0,0,18,0,6,0,0,0,0,0,6,0,0,0,0,12.4,0.5,1.79,Dropout_Enrolled
1,1,1,9670,1,1,131,1,Basic,Basic,123,1,0,0,1,0,1,18,0,5,6,3,11.666667,0,0,5,6,4,13.5,0,7.6,2.6,0.32,Dropout_Enrolled
1,39,1,8014,0,19,133.1,1,Basic,Basic,135.5,0,0,0,1,0,0,58,0,6,6,0,0,0,0,6,6,0,0,0,11.1,0.6,2.02,Dropout_Enrolled
1,39,1,9991,0,1,133.1,1,Basic,Basic,111.4,0,0,0,1,1,0,27,0,5,7,1,11,0,0,5,7,0,0,0,13.9,-0.3,0.79,Dropout_Enrolled
1,17,2,9254,1,1,130,1,Basic,Basic,123.4,1,0,0,1,1,0,30,0,6,17,2,10,0,0,6,15,3,11.333333,0,7.6,2.6,0.32,Dropout_Enrolled
1,39,1,9773,1,19,133.1,1,Basic,Basic,104,0,0,1,0,0,0,27,0,6,6,5,12,0,0,6,6,0,0,0,11.1,0.6,2.02,Dropout_Enrolled
1,44,1,9003,1,39,130,1,Basic,Basic,130,0,0,1,0,0,0,29,0,6,13,3,12.75,0,0,6,8,3,11.333333,0,13.9,-0.3,0.79,Dropout_Enrolled
1,7,1,9070,1,3,140,1,Basic,Higher,140,0,0,0,0,0,0,23,0,3,3,2,10,0,0,6,0,0,0,0,10.8,1.4,1.74,Dropout_Enrolled
1,1,1,9085,1,1,129,1,Secondary,Higher,125.9,1,0,0,1,0,0,19,0,5,13,4,12,2,0,5,8,3,12,0,9.4,-0.8,-3.12,Dropout_Enrolled
1,1,1,9238,1,1,122,1,Basic,Basic,112.6,0,0,0,1,0,0,19,0,6,0,0,0,0,0,6,0,0,0,0,12.4,0.5,1.79,Dropout_Enrolled
1,17,2,9853,1,1,150,1,Basic,Basic,142,1,0,0,1,0,1,19,0,6,8,6,12.333333,0,0,6,7,5,12.4,0,10.8,1.4,1.74,Dropout_Enrolled
1,1,1,9147,1,1,122,1,Secondary,Basic,120.3,1,0,0,1,1,1,19,0,5,8,5,12.6,0,0,5,9,5,13.6,0,8.9,1.4,3.51,Dropout_Enrolled
1,43,1,9773,1,1,119,1,Basic,Basic,105,1,0,0,1,0,0,23,0,6,11,3,11.333333,0,0,6,7,2,11,0,16.2,0.3,-0.92,Dropout_Enrolled
1,39,1,9670,1,6,133.1,1,Secondary,Secondary,107,1,0,0,1,1,0,30,0,5,5,0,0,0,0,5,5,0,0,0,7.6,2.6,0.32,Dropout_Enrolled
1,1,3,9773,1,1,149,1,Secondary,Higher,148.7,0,0,0,0,1,0,20,0,4,4,0,0,0,0,4,8,0,0,0,10.8,1.4,1.74,Dropout_Enrolled
1,39,1,9991,0,12,133.1,1,Basic,Basic,121.5,0,0,0,1,1,0,38,0,5,11,2,10.5,0,0,5,9,3,11.333333,1,7.6,2.6,0.32,Dropout_Enrolled
1,17,1,9147,1,1,115,1,Basic,Basic,115,1,0,0,1,0,0,23,0,5,7,2,10,1,0,5,9,1,12,0,9.4,-0.8,-3.12,Dropout_Enrolled
1,44,1,9085,1,39,140,1,Basic,Basic,140,0,0,0,1,0,0,20,2,6,9,6,12.666667,0,1,6,12,2,13,0,13.9,-0.3,0.79,Dropout_Enrolled
4,39,1,9003,1,1,133.1,1,Basic,Basic,100.7,0,0,0,1,0,0,39,0,6,15,2,13,2,0,6,13,3,13,1,15.5,2.8,-4.06,Dropout_Enrolled
1,1,1,9085,1,1,132,1,Secondary,Secondary,124.3,0,0,0,1,0,0,20,0,6,10,6,13.428571,0,0,6,11,5,12.666667,0,13.9,-0.3,0.79,Dropout_Enrolled
1,1,1,9119,1,1,148,1,Basic,Basic,133,0,0,0,1,1,0,18,0,5,12,5,13.285714,0,0,5,16,5,14.8,0,12.4,0.5,1.79,Dropout_Enrolled
1,1,1,9085,1,1,140,6,Secondary,Basic,131.6,1,0,0,1,0,0,20,0,7,9,6,14.714286,0,1,7,16,6,13.2,0,12.4,0.5,1.79,Dropout_Enrolled
1,17,2,9670,1,1,123,1,Unknown,Basic,114.6,1,0,1,0,0,0,18,0,5,8,3,12,0,0,5,6,4,10.75,0,7.6,2.6,0.32,Dropout_Enrolled
1,17,6,9147,1,1,133,1,Basic,Basic,123.2,1,0,0,1,1,0,20,0,5,7,3,12.666667,1,0,5,12,2,12.5,0,9.4,-0.8,-3.12,Dropout_Enrolled
4,7,1,9147,1,3,130,1,Basic,Secondary,130,0,0,0,1,0,0,35,0,5,5,0,0,0,0,5,5,0,0,0,11.1,0.6,2.02,Dropout_Enrolled
1,1,6,9853,1,1,140,1,Basic,Basic,137.6,1,0,0,1,0,0,18,0,6,7,6,11.666667,0,0,6,7,6,12.333333,0,10.8,1.4,1.74,Dropout_Enrolled
1,1,1,9254,1,1,124,1,Basic,Basic,114.6,1,0,0,1,1,0,19,0,6,13,2,12,0,0,6,12,1,13,0,7.6,2.6,0.32,Dropout_Enrolled
2,42,1,9556,1,1,110,1,Basic,Basic,140,0,0,0,1,1,0,43,0,7,7,0,0,0,0,8,13,2,13.15,0,16.2,0.3,-0.92,Dropout_Enrolled
1,7,1,9003,1,3,130,1,Secondary,Basic,130,0,0,0,1,1,0,27,0,6,8,0,0,0,0,6,10,0,0,0,16.2,0.3,-0.92,Dropout_Enrolled
1,43,1,9070,1,1,150,1,Higher,Higher,140.8,0,0,0,1,0,0,19,1,6,6,5,12.4,0,0,6,8,6,12.75,0,10.8,1.4,1.74,Dropout_Enrolled
1,39,1,9500,1,4,150,1,Higher,Basic,127,1,0,0,1,1,0,26,2,7,8,6,13.046667,0,2,8,10,7,13.30625,0,11.1,0.6,2.02,Dropout_Enrolled
1,1,1,9670,1,1,126,1,Basic,Basic,125.7,0,0,0,1,0,0,20,0,6,9,6,13.571429,0,0,6,10,5,13.6,0,15.5,2.8,-4.06,Dropout_Enrolled
2,42,1,9003,1,1,120,1,Higher,Secondary,113.3,0,0,0,1,1,0,26,0,6,9,1,10,0,0,6,6,0,0,0,12.4,0.5,1.79,Dropout_Enrolled
1,17,6,9556,1,1,122,1,Secondary,Secondary,117.1,1,0,0,1,0,0,19,0,7,12,5,12.1,0,0,7,0,0,0,0,13.9,-0.3,0.79,Dropout_Enrolled
1,43,1,33,1,1,134,1,Basic,Basic,100,1,0,0,1,1,0,32,0,7,7,0,0,0,0,7,8,0,0,0,13.9,-0.3,0.79,Dropout_Enrolled
2,43,1,9991,0,1,130,1,Basic,Basic,103.8,0,0,0,1,0,0,28,14,15,15,14,11.071429,0,12,14,16,12,11.333333,1,9.4,-0.8,-3.12,Dropout_Enrolled
1,39,1,9670,1,9,133.1,1,Higher,Secondary,120,0,0,1,0,1,0,26,0,5,5,0,0,0,0,5,5,0,0,5,9.4,-0.8,-3.12,Dropout_Enrolled
1,1,1,9238,1,1,170,1,Basic,Basic,150.8,1,0,0,1,0,0,27,0,6,13,2,11,0,0,6,14,1,11,0,7.6,2.6,0.32,Dropout_Enrolled
1,39,1,9991,0,1,133.1,1,Basic,Basic,109.7,0,0,0,1,0,0,29,0,5,0,0,0,0,0,5,0,0,0,0,16.2,0.3,-0.92,Dropout_Enrolled
1,1,3,171,1,1,129,1,Basic,Basic,127.3,1,0,1,0,1,1,19,0,0,0,0,0,0,0,0,0,0,0,0,9.4,-0.8,-3.12,Dropout_Enrolled
1,1,1,9070,1,1,132,1,Secondary,Secondary,136.6,1,0,0,1,1,0,19,0,6,7,5,11.4,0,0,6,10,3,11,3,7.6,2.6,0.32,Dropout_Enrolled
1,1,1,9070,1,1,124,1,Basic,Basic,132.1,1,0,0,1,0,0,19,0,6,10,2,10.5,0,0,6,6,3,11,0,7.6,2.6,0.32,Dropout_Enrolled
1,1,2,9773,1,1,133.1,1,Basic,Basic,98,1,0,0,1,1,1,19,0,6,8,4,12,0,0,6,8,6,12.285714,0,15.5,2.8,-4.06,Dropout_Enrolled
1,44,1,9003,1,39,150,1,Secondary,Basic,150,1,0,0,1,1,0,21,0,6,12,4,11.8,0,0,6,11,4,11.875,0,16.2,0.3,-0.92,Dropout_Enrolled
1,39,2,9147,1,19,133.1,1,Basic,Basic,116.3,0,0,0,0,1,0,32,0,5,5,0,0,0,0,5,9,0,0,0,10.8,1.4,1.74,Dropout_Enrolled
1,42,1,9119,1,1,120,1,Secondary,Secondary,108.6,0,0,0,0,1,0,34,2,7,13,5,12,0,2,7,7,3,11,0,15.5,2.8,-4.06,Dropout_Enrolled
1,17,2,9119,1,1,137,1,Secondary,Secondary,130.4,1,0,1,1,1,0,18,0,5,10,1,12,0,0,5,7,3,10.666667,2,7.6,2.6,0.32,Dropout_Enrolled
1,43,1,9556,1,1,126,1,Higher,Higher,100,0,0,0,1,0,0,25,2,7,10,3,13,0,1,8,10,3,11.666667,4,10.8,1.4,1.74,Dropout_Enrolled
1,1,5,9119,1,1,132,1,Basic,Basic,119.1,0,0,0,1,0,0,18,0,5,11,0,0,0,0,5,8,0,0,0,9.4,-0.8,-3.12,Dropout_Enrolled
1,1,1,9670,1,1,132,1,Higher,Higher,143.6,1,0,0,1,1,0,20,0,6,8,5,12.8,0,0,6,10,5,11.6,0,13.9,-0.3,0.79,Dropout_Enrolled
1,1,1,9500,1,1,124,1,Secondary,Basic,116.7,1,0,0,1,0,1,18,0,7,9,0,0,0,0,7,8,1,10,0,15.5,2.8,-4.06,Dropout_Enrolled
1,39,1,9085,1,1,140,1,Basic,Basic,129.3,1,0,1,1,0,0,28,0,6,17,0,0,0,0,6,6,0,0,0,8.9,1.4,3.51,Dropout_Enrolled
2,39,1,171,1,19,100,1,Basic,Basic,139,0,0,0,1,1,0,36,0,0,0,0,0,0,0,0,0,0,0,0,10.8,1.4,1.74,Dropout_Enrolled
