@relation 'dataexcel-weka.filters.unsupervised.attribute.Remove-R11-12-weka.filters.unsupervised.attribute.NumericToNominal-R1,2,4,5,6,8,12-17-weka.filters.unsupervised.attribute.MergeTwoValues-Clast-F1-S3-weka.filters.supervised.instance.StratifiedRemoveFolds-S1-V-N5-F1-weka.filters.unsupervised.attribute.Remove-R25-30-weka.filters.unsupervised.attribute.Remove-R19-24'

@attribute 'Marital status' {1,2,3,4,5,6}
@attribute 'Application mode' {1,2,5,7,10,15,16,17,18,26,27,39,42,43,44,51,53,57}
@attribute 'Application order' numeric
@attribute Course {33,171,8014,9003,9070,9085,9119,9130,9147,9238,9254,9500,9556,9670,9773,9853,9991}
@attribute 'Daytime/evening attendance\t' {0,1}
@attribute 'Previous qualification' {1,2,3,4,5,6,9,10,12,14,15,19,38,39,40,42,43}
@attribute 'Previous qualification (grade)' numeric
@attribute Nacionality {1,2,6,11,13,14,17,21,22,24,25,26,32,41,62,100,101,103,105,108,109}
@attribute 'Mother qualification' {Basic,Secondary,Higher,Unknown}
@attribute 'Father qualification' {Secondary,Higher,Basic,Unknown}
@attribute 'Admission grade' numeric
@attribute Displaced {0,1}
@attribute 'Educational special needs' {0,1}
@attribute Debtor {0,1}
@attribute 'Tuition fees up to date' {0,1}
@attribute Gender {0,1}
@attribute 'Scholarship holder' {0,1}
@attribute 'Age at enrollment' numeric
@attribute 'Unemployment rate' numeric
@attribute 'Inflation rate' numeric
@attribute GDP numeric
@attribute Target {Dropout_Enrolled,Graduate}

@data
1,16,2,9238,1,1,133,1,Basic,Basic,133.7,1,0,0,1,0,0,18,10.8,1.4,1.74,Graduate
1,1,2,9773,1,1,150,41,Secondary,Basic,130.8,0,0,0,1,0,1,20,15.5,2.8,-4.06,Graduate
1,17,1,9085,1,1,120,1,Basic,Basic,127,0,0,0,1,0,0,19,7.6,2.6,0.32,Graduate
1,1,1,9500,1,1,157,1,Basic,Basic,143,0,0,0,1,1,0,18,12.7,3.7,-1.7,Graduate
1,1,2,9500,1,1,132,1,Basic,Basic,128,1,0,0,1,1,1,19,10.8,1.4,1.74,Graduate
1,44,1,9238,1,39,130,1,Basic,Basic,126.3,1,0,0,1,0,1,19,13.9,-0.3,0.79,Graduate
1,17,2,9500,1,1,135,1,Basic,Secondary,127.3,1,0,0,1,0,0,18,15.5,2.8,-4.06,Graduate
1,1,1,9147,1,1,150,1,Secondary,Basic,137.8,1,0,0,1,1,1,19,16.2,0.3,-0.92,Graduate
1,1,1,9130,1,1,140,1,Higher,Higher,127.8,0,0,0,1,1,0,18,11.1,0.6,2.02,Graduate
1,17,2,9070,1,1,133.1,1,Basic,Basic,178,1,0,0,1,1,1,23,9.4,-0.8,-3.12,Graduate
1,44,1,9238,1,39,140,1,Secondary,Secondary,141.7,0,0,0,1,0,1,20,13.9,-0.3,0.79,Graduate
1,1,6,9500,1,1,144,1,Secondary,Basic,130.8,1,0,0,1,0,1,19,12.7,3.7,-1.7,Graduate
1,44,1,9130,1,39,150,1,Basic,Basic,150,1,0,0,1,1,0,22,10.8,1.4,1.74,Graduate
1,1,4,9500,1,1,135,1,Basic,Basic,123,1,0,0,1,0,1,18,10.8,1.4,1.74,Graduate
1,1,3,9773,1,1,158,1,Secondary,Basic,157,1,0,0,1,0,0,18,10.8,1.4,1.74,Graduate
2,39,1,8014,0,1,133.1,1,Basic,Basic,114,0,0,0,1,0,0,44,12.7,3.7,-1.7,Graduate
1,42,1,9991,0,1,160,1,Secondary,Higher,120,0,0,0,1,0,0,30,7.6,2.6,0.32,Graduate
1,43,2,9500,1,1,136,1,Basic,Basic,131.3,0,0,0,1,0,0,23,7.6,2.6,0.32,Graduate
1,10,2,9085,1,1,163.3,22,Basic,Secondary,163.3,0,0,0,1,0,0,18,12.4,0.5,1.79,Graduate
1,17,3,9238,1,1,118,1,Higher,Secondary,110,1,0,0,1,0,0,18,8.9,1.4,3.51,Graduate
1,1,1,9500,1,1,137,1,Basic,Basic,130.8,1,0,0,1,0,1,18,7.6,2.6,0.32,Graduate
1,1,5,9500,1,1,101,1,Basic,Basic,104.5,1,0,0,1,0,1,21,11.1,0.6,2.02,Graduate
2,39,1,9773,1,38,100,1,Basic,Basic,154,1,0,0,1,1,0,57,9.4,-0.8,-3.12,Graduate
1,39,1,9003,1,1,150,1,Basic,Basic,137,0,0,0,1,1,0,35,15.5,2.8,-4.06,Graduate
1,17,1,9670,1,1,134,1,Basic,Basic,125.3,1,0,0,1,1,1,19,10.8,1.4,1.74,Graduate
1,17,1,9670,1,1,117,1,Secondary,Secondary,117.7,1,0,0,1,1,0,20,8.9,1.4,3.51,Graduate
1,17,4,9500,1,1,121,1,Basic,Basic,118.9,1,0,0,1,0,0,21,16.2,0.3,-0.92,Graduate
1,1,1,9991,0,1,130,1,Higher,Basic,131.4,0,0,0,1,1,0,34,13.9,-0.3,0.79,Graduate
1,1,1,9853,1,1,128,1,Basic,Basic,124.9,0,0,0,1,0,1,19,12.7,3.7,-1.7,Graduate
1,17,3,9500,1,1,137,1,Secondary,Secondary,124.8,1,0,0,1,1,1,19,15.5,2.8,-4.06,Graduate
1,43,1,9003,1,1,130,1,Secondary,Higher,130,0,0,0,1,1,0,28,15.5,2.8,-4.06,Graduate
1,1,1,9085,1,1,122,1,Secondary,Basic,103.4,0,0,0,1,0,0,19,7.6,2.6,0.32,Graduate
1,17,3,9147,1,1,112,1,Secondary,Secondary,106.4,1,0,0,1,1,0,19,12.4,0.5,1.79,Graduate
1,44,1,9003,1,39,150,1,Basic,Basic,150,1,0,0,1,1,0,20,16.2,0.3,-0.92,Graduate
1,17,3,9500,1,1,133,1,Higher,Basic,130.8,1,0,0,1,0,0,19,9.4,-0.8,-3.12,Graduate
1,1,1,9254,1,1,132,1,Basic,Basic,120.1,0,0,0,1,0,1,20,13.9,-0.3,0.79,Graduate
1,17,5,9500,1,1,136,1,Basic,Basic,130.3,1,0,0,1,0,1,18,7.6,2.6,0.32,Graduate
1,1,3,9085,1,1,140,1,Secondary,Basic,135.8,1,0,0,1,0,0,18,7.6,2.6,0.32,Graduate
1,1,1,9238,1,1,133.1,1,Basic,Basic,130,0,0,0,0,0,1,20,10.8,1.4,1.74,Graduate
1,1,1,9130,1,1,133,1,Basic,Basic,120.4,1,0,0,1,0,0,20,9.4,-0.8,-3.12,Graduate
1,1,1,9085,1,1,131,1,Basic,Basic,139.8,1,0,0,1,0,0,19,10.8,1.4,1.74,Graduate
1,1,1,9070,1,1,116,1,Secondary,Secondary,110.8,1,0,0,1,0,0,20,12.4,0.5,1.79,Graduate
1,1,1,9147,1,1,136,1,Basic,Basic,125.9,0,0,0,1,0,0,21,11.1,0.6,2.02,Graduate
1,1,6,9500,1,1,146,1,Higher,Basic,130.3,1,0,0,1,1,0,18,9.4,-0.8,-3.12,Graduate
1,43,1,9130,1,1,140,1,Higher,Higher,140,0,0,0,1,0,0,20,15.5,2.8,-4.06,Graduate
1,44,1,8014,0,39,160,1,Basic,Basic,156.1,0,0,0,1,0,1,21,13.9,-0.3,0.79,Graduate
1,17,2,9254,1,1,128,1,Basic,Basic,129.1,1,0,0,1,0,0,18,11.1,0.6,2.02,Graduate
1,1,1,9853,1,1,115,1,Basic,Basic,108,0,0,0,1,0,1,19,12.4,0.5,1.79,Graduate
1,17,5,9773,1,1,113,1,Basic,Basic,110.2,1,0,1,1,0,0,19,8.9,1.4,3.51,Graduate
1,17,5,9500,1,1,128,1,Secondary,Secondary,120.8,1,0,0,1,0,1,19,16.2,0.3,-0.92,Graduate
1,1,1,9085,1,1,133.1,1,Basic,Basic,110,1,0,0,1,0,1,21,11.1,0.6,2.02,Graduate
1,39,1,9500,1,1,133.1,1,Basic,Basic,120,0,0,0,1,0,1,25,12.7,3.7,-1.7,Graduate
1,43,2,9500,1,1,130,1,Basic,Basic,126.8,1,0,0,1,1,1,28,7.6,2.6,0.32,Graduate
1,17,2,9147,1,1,131,1,Secondary,Basic,120.2,1,0,0,1,0,0,21,12.4,0.5,1.79,Graduate
4,39,1,9003,1,19,133.1,1,Basic,Basic,110,0,0,0,1,1,0,49,15.5,2.8,-4.06,Graduate
1,1,1,9085,1,1,120,1,Basic,Secondary,115.1,1,0,0,1,0,0,19,13.9,-0.3,0.79,Graduate
1,17,1,9070,1,1,157,1,Higher,Higher,146.2,0,0,0,1,1,0,18,12.4,0.5,1.79,Graduate
1,15,1,9853,1,1,133.1,41,Higher,Secondary,128.2,0,0,0,1,0,0,23,8.9,1.4,3.51,Graduate
2,39,1,9003,1,1,140,1,Basic,Basic,104.8,0,0,0,1,0,0,46,15.5,2.8,-4.06,Graduate
1,1,3,9147,1,1,143,1,Secondary,Secondary,133.2,1,0,0,1,0,1,18,12.7,3.7,-1.7,Graduate
1,17,1,9254,1,1,142,1,Basic,Secondary,141.7,0,0,0,1,0,1,18,13.9,-0.3,0.79,Graduate
1,1,3,9500,1,1,134,1,Basic,Basic,132.8,1,0,0,1,0,1,19,10.8,1.4,1.74,Graduate
1,1,1,9238,1,1,136,1,Basic,Basic,133.2,1,0,0,1,0,0,19,7.6,2.6,0.32,Graduate
1,1,3,9500,1,1,145,1,Basic,Basic,141.5,1,0,0,1,0,1,18,9.4,-0.8,-3.12,Graduate
1,1,4,9070,1,1,170,1,Higher,Higher,165.8,1,0,0,1,1,0,18,9.4,-0.8,-3.12,Graduate
1,1,1,9085,1,1,144,13,Higher,Higher,137.6,1,0,0,1,0,1,19,10.8,1.4,1.74,Graduate
1,17,1,9070,1,1,141,1,Basic,Basic,133.7,1,0,0,1,1,0,22,7.6,2.6,0.32,Graduate
1,17,1,8014,0,1,132,1,Basic,Basic,121.2,0,0,0,1,0,0,18,10.8,1.4,1.74,Graduate
1,17,1,9085,1,1,139,1,Basic,Basic,136.2,0,0,0,1,0,0,19,7.6,2.6,0.32,Graduate
1,44,1,171,1,39,150,1,Higher,Higher,150,0,0,0,1,1,0,25,15.5,2.8,-4.06,Graduate
1,1,4,9773,1,1,124,1,Higher,Secondary,137,1,0,0,1,1,0,20,8.9,1.4,3.51,Graduate
1,17,1,9500,1,1,147,1,Secondary,Secondary,134.9,0,1,0,1,0,0,18,16.2,0.3,-0.92,Graduate
1,5,3,9070,1,1,157,1,Higher,Secondary,138.1,1,0,0,1,0,0,18,10.8,1.4,1.74,Graduate
1,1,4,171,1,1,133.1,1,Secondary,Secondary,110,1,0,0,1,0,0,20,16.2,0.3,-0.92,Graduate
1,17,2,9254,1,1,141,1,Secondary,Higher,127.7,0,0,0,1,0,1,18,16.2,0.3,-0.92,Graduate
1,17,2,9238,1,1,111,1,Basic,Basic,110.7,1,0,0,1,0,0,19,8.9,1.4,3.51,Graduate
1,1,4,9500,1,1,125,1,Secondary,Secondary,115.2,1,0,0,1,0,0,20,12.4,0.5,1.79,Graduate
1,1,2,9147,1,1,142,1,Basic,Basic,137.5,1,0,0,1,1,0,19,13.9,-0.3,0.79,Graduate
2,39,1,9003,1,1,130,1,Basic,Basic,144,0,0,0,1,0,0,29,15.5,2.8,-4.06,Graduate
1,1,3,9500,1,1,142,1,Secondary,Secondary,131,1,0,0,1,0,0,18,10.8,1.4,1.74,Graduate
2,39,1,9991,0,12,133.1,1,Basic,Basic,133.8,1,0,0,1,1,0,52,7.6,2.6,0.32,Graduate
1,1,6,9500,1,1,141,1,Higher,Higher,136.3,1,0,0,1,1,0,18,9.4,-0.8,-3.12,Graduate
1,18,1,9147,1,1,121,1,Basic,Higher,115.8,1,0,0,1,0,1,19,12.4,0.5,1.79,Graduate
1,1,4,9500,1,1,148,1,Basic,Basic,125,1,0,0,1,0,0,18,7.6,2.6,0.32,Graduate
1,1,1,9238,1,1,126,1,Higher,Secondary,125.7,0,0,0,1,0,1,18,15.5,2.8,-4.06,Graduate
1,51,1,9991,0,1,141,1,Basic,Basic,100,0,0,0,1,0,0,21,8.9,1.4,3.51,Graduate
1,1,1,9085,1,1,139,1,Higher,Higher,130.6,0,0,0,1,0,0,18,9.4,-0.8,-3.12,Graduate
1,17,4,9773,1,1,118,1,Secondary,Basic,120.8,1,0,0,1,0,0,20,12.4,0.5,1.79,Graduate
1,1,1,9500,1,1,139,1,Basic,Basic,131.5,1,0,0,1,0,0,18,10.8,1.4,1.74,Graduate
1,1,1,9773,1,1,133.1,1,Basic,Basic,146,0,0,1,1,0,0,20,16.2,0.3,-0.92,Graduate
1,43,1,9991,0,1,140,1,Secondary,Secondary,100,0,0,0,1,1,0,34,9.4,-0.8,-3.12,Graduate
1,1,2,9773,1,1,132,1,Secondary,Higher,128.2,1,0,0,1,0,1,19,9.4,-0.8,-3.12,Graduate
1,15,1,9147,1,1,140,26,Basic,Higher,140,0,0,1,1,1,0,19,12.4,0.5,1.79,Graduate
1,17,5,9119,1,1,124,11,Higher,Secondary,119.5,1,0,0,1,1,0,20,8.9,1.4,3.51,Graduate
1,1,5,9500,1,1,132,1,Basic,Basic,120.3,1,0,0,1,0,1,18,12.4,0.5,1.79,Graduate
1,17,1,9670,1,1,126,1,Secondary,Basic,122.2,0,0,0,1,0,1,19,8.9,1.4,3.51,Graduate
1,1,2,171,1,1,133.1,1,Higher,Secondary,141,1,0,0,1,0,0,19,12.7,3.7,-1.7,Graduate
1,17,1,9130,1,1,130,1,Higher,Basic,115.9,0,0,0,1,0,0,18,9.4,-0.8,-3.12,Graduate
1,51,1,9500,1,1,170,1,Secondary,Secondary,125,0,0,0,1,1,0,20,11.1,0.6,2.02,Graduate
1,1,1,9238,1,1,116,1,Basic,Basic,116.4,1,0,0,1,0,0,18,8.9,1.4,3.51,Graduate
1,16,1,9003,1,1,147,1,Secondary,Basic,140.7,1,0,1,1,0,1,20,15.5,2.8,-4.06,Graduate
1,1,1,9853,1,1,153,1,Secondary,Basic,139.7,1,0,0,1,0,1,19,11.1,0.6,2.02,Graduate
3,39,1,9991,0,1,120,1,Basic,Secondary,170,0,0,0,1,1,0,43,9.4,-0.8,-3.12,Graduate
1,17,1,9238,1,1,128,1,Basic,Secondary,122.1,1,0,0,1,0,0,18,13.9,-0.3,0.79,Graduate
1,1,1,9085,1,1,111,1,Secondary,Basic,107.5,0,0,0,1,1,1,19,11.1,0.6,2.02,Graduate
1,1,1,9238,1,1,135,1,Basic,Basic,135,1,0,0,1,0,0,20,10.8,1.4,1.74,Graduate
1,1,3,9147,1,1,128,1,Higher,Higher,116.5,0,0,0,1,1,0,20,12.4,0.5,1.79,Graduate
1,1,1,9773,1,1,164,1,Basic,Secondary,161.2,0,0,0,1,1,1,18,13.9,-0.3,0.79,Graduate
1,17,1,9500,1,1,131,1,Secondary,Basic,125.4,1,0,0,1,0,0,19,15.5,2.8,-4.06,Graduate
1,43,1,9070,1,39,130,1,Basic,Basic,124,1,0,0,1,0,1,21,15.5,2.8,-4.06,Graduate
1,44,1,9003,1,39,180,1,Secondary,Higher,180,0,0,0,1,0,0,21,15.5,2.8,-4.06,Graduate
1,1,1,9130,1,1,172,1,Basic,Basic,163.3,1,0,0,1,0,1,18,13.9,-0.3,0.79,Graduate
1,1,1,9670,1,1,130,1,Basic,Basic,117.8,1,0,0,1,0,0,21,7.6,2.6,0.32,Graduate
1,1,1,9773,1,1,121,1,Secondary,Higher,113,1,0,0,1,1,1,18,12.4,0.5,1.79,Graduate
1,17,1,9085,1,1,131,1,Secondary,Higher,129.3,1,0,0,1,0,0,19,12.7,3.7,-1.7,Graduate
1,1,1,171,1,1,145,1,Secondary,Basic,150.6,1,0,0,1,1,0,18,10.8,1.4,1.74,Graduate
1,1,3,9147,1,1,115,1,Secondary,Basic,109.8,1,0,0,1,0,1,19,8.9,1.4,3.51,Graduate
1,17,1,9085,1,1,124,1,Basic,Basic,113.9,1,0,0,1,0,1,20,12.7,3.7,-1.7,Graduate
1,1,3,9500,1,1,139,1,Basic,Secondary,135,1,0,0,1,0,1,18,12.7,3.7,-1.7,Graduate
1,1,1,171,1,1,163,1,Basic,Secondary,143.1,0,0,0,1,1,0,18,9.4,-0.8,-3.12,Graduate
1,17,4,9500,1,1,146,1,Basic,Basic,135.8,1,0,0,1,0,0,18,7.6,2.6,0.32,Graduate
1,17,3,9070,1,1,128,1,Basic,Basic,124.5,1,0,0,1,1,0,18,10.8,1.4,1.74,Graduate
1,1,1,9254,1,1,138,41,Secondary,Secondary,126.5,1,0,0,1,0,1,20,8.9,1.4,3.51,Graduate
1,1,2,9670,1,1,121,1,Secondary,Basic,135.4,1,0,0,1,0,1,19,8.9,1.4,3.51,Graduate
1,17,2,9670,1,1,110,1,Secondary,Secondary,115.3,1,0,0,1,1,0,19,15.5,2.8,-4.06,Graduate
1,1,1,9773,1,1,127,1,Basic,Basic,116.5,0,0,0,1,0,1,19,11.1,0.6,2.02,Graduate
1,1,1,9773,1,1,134,1,Secondary,Basic,122.8,0,0,0,1,1,0,18,12.7,3.7,-1.7,Graduate
1,1,1,171,1,1,147,1,Basic,Basic,151.9,1,0,0,1,0,0,21,11.1,0.6,2.02,Graduate
1,17,2,9147,1,1,142,1,Basic,Basic,127.3,0,0,0,1,0,1,18,11.1,0.6,2.02,Graduate
1,43,1,9500,1,1,141,1,Higher,Basic,100,0,0,0,1,1,0,18,13.9,-0.3,0.79,Graduate
1,17,1,9500,1,1,148,1,Secondary,Basic,143.3,0,0,0,1,0,1,18,13.9,-0.3,0.79,Graduate
1,1,6,9500,1,1,137,1,Secondary,Secondary,126.3,1,0,0,1,0,1,18,9.4,-0.8,-3.12,Graduate
1,1,1,9238,1,1,141,1,Basic,Basic,138.9,0,0,0,1,0,0,18,13.9,-0.3,0.79,Graduate
1,17,5,9500,1,1,137,1,Secondary,Secondary,132.6,1,0,0,1,0,1,18,13.9,-0.3,0.79,Graduate
1,17,4,9670,1,1,135,1,Basic,Basic,127,1,0,0,1,0,0,18,11.1,0.6,2.02,Graduate
1,1,2,9500,1,1,141,1,Basic,Basic,126.3,1,0,0,1,0,0,19,15.5,2.8,-4.06,Graduate
1,51,1,9070,1,1,125,1,Higher,Higher,130,1,0,0,1,1,0,20,8.9,1.4,3.51,Graduate
1,44,1,8014,0,39,130,1,Basic,Basic,130,1,0,0,1,0,0,23,11.1,0.6,2.02,Graduate
1,44,1,9085,1,39,160,1,Basic,Basic,160,1,0,0,1,0,0,22,16.2,0.3,-0.92,Graduate
1,17,4,9147,1,1,114,1,Basic,Basic,109.5,1,0,0,1,1,1,20,8.9,1.4,3.51,Graduate
1,1,2,9238,1,1,124,1,Basic,Basic,129.6,1,0,0,1,1,0,19,7.6,2.6,0.32,Graduate
1,43,1,9991,0,4,160,1,Higher,Higher,125,0,0,0,1,1,0,26,13.9,-0.3,0.79,Graduate
1,17,6,9500,1,1,150,1,Secondary,Basic,131.5,1,0,0,1,0,0,19,10.8,1.4,1.74,Graduate
1,1,1,171,1,1,142,1,Basic,Basic,142,1,0,0,1,0,1,18,13.9,-0.3,0.79,Graduate
1,1,2,9500,1,1,135,1,Basic,Secondary,132.8,1,0,0,1,0,1,18,12.7,3.7,-1.7,Graduate
1,17,1,9238,1,1,134,1,Higher,Secondary,133,1,0,0,1,0,0,18,12.7,3.7,-1.7,Graduate
1,17,1,9853,1,1,133,1,Basic,Basic,127.4,0,0,1,1,0,1,18,16.2,0.3,-0.92,Graduate
1,51,1,9238,1,1,160,1,Higher,Basic,116.1,0,0,1,1,0,0,26,11.1,0.6,2.02,Graduate
1,1,1,9238,1,1,128,1,Basic,Basic,124.5,1,0,0,1,0,1,18,12.4,0.5,1.79,Graduate
1,39,2,8014,0,1,141,1,Basic,Basic,150.5,0,0,0,1,0,0,29,12.4,0.5,1.79,Graduate
1,17,4,9853,1,1,140,1,Basic,Basic,128.5,1,0,0,1,0,0,18,10.8,1.4,1.74,Graduate
1,1,1,9147,1,1,127,1,Higher,Basic,121.8,0,0,0,1,0,0,18,11.1,0.6,2.02,Graduate
1,1,4,9500,1,1,136,1,Basic,Basic,125.5,1,0,0,1,0,1,21,7.6,2.6,0.32,Graduate
4,39,1,9991,0,1,133.1,1,Basic,Basic,136.2,0,0,0,1,0,0,39,10.8,1.4,1.74,Graduate
2,39,2,9670,1,1,100,1,Basic,Basic,110,0,0,0,1,1,1,36,9.4,-0.8,-3.12,Graduate
1,39,1,9147,1,19,133.1,1,Higher,Secondary,153.2,1,0,1,1,0,0,24,12.4,0.5,1.79,Graduate
1,7,1,9254,1,40,130,1,Secondary,Secondary,130,0,0,0,1,0,0,39,13.9,-0.3,0.79,Graduate
1,1,4,9070,1,1,139,1,Higher,Basic,138.3,1,0,0,1,0,0,19,9.4,-0.8,-3.12,Graduate
1,51,1,9070,1,1,135,1,Higher,Secondary,121.8,0,0,0,1,0,1,19,11.1,0.6,2.02,Graduate
1,17,1,9500,1,1,130,1,Higher,Higher,131.1,0,0,0,1,1,0,19,12.4,0.5,1.79,Graduate
1,7,1,9147,1,40,110,1,Basic,Basic,110,0,0,0,1,0,0,52,13.9,-0.3,0.79,Graduate
1,1,1,9500,1,1,143,1,Higher,Higher,129,0,0,0,1,1,0,18,10.8,1.4,1.74,Graduate
2,39,1,8014,0,12,133.1,1,Basic,Basic,113,0,0,0,1,0,0,46,11.1,0.6,2.02,Graduate
1,1,1,9238,1,1,107,1,Basic,Basic,103.5,1,0,0,1,0,0,20,12.4,0.5,1.79,Graduate
1,1,2,9500,1,1,145,1,Higher,Higher,127.3,1,0,0,1,1,0,18,10.8,1.4,1.74,Graduate
1,1,2,9773,1,1,137,1,Secondary,Basic,133.2,1,0,0,1,0,1,19,13.9,-0.3,0.79,Graduate
2,43,3,8014,0,19,100,1,Basic,Basic,120,1,0,0,1,1,0,41,9.4,-0.8,-3.12,Graduate
1,1,1,9070,1,1,117,1,Higher,Basic,123.7,1,0,0,1,0,0,19,12.4,0.5,1.79,Graduate
1,1,5,9500,1,1,143,1,Basic,Basic,131.6,1,0,0,1,0,1,19,15.5,2.8,-4.06,Graduate
1,17,1,9238,1,1,123,1,Secondary,Secondary,115.7,1,0,0,1,0,0,21,11.1,0.6,2.02,Graduate
4,7,1,9500,1,3,140,1,Basic,Basic,140,0,0,0,1,1,0,51,13.9,-0.3,0.79,Graduate
1,17,1,9238,1,1,127,1,Basic,Basic,122.8,0,0,0,1,0,1,19,16.2,0.3,-0.92,Graduate
1,17,1,9085,1,1,141,1,Higher,Higher,130.2,1,0,0,1,0,0,20,15.5,2.8,-4.06,Graduate
1,1,5,9670,1,1,142,1,Basic,Basic,132.9,0,0,0,1,1,0,19,7.6,2.6,0.32,Graduate
1,1,4,9147,1,1,116,1,Secondary,Secondary,113.6,1,0,0,1,0,1,22,11.1,0.6,2.02,Graduate
1,1,3,9500,1,1,130,1,Basic,Basic,130.5,1,0,0,1,0,0,19,7.6,2.6,0.32,Graduate
1,17,1,9670,1,1,120,1,Basic,Basic,113,1,0,0,1,0,0,20,7.6,2.6,0.32,Graduate
1,17,1,9500,1,1,121,1,Secondary,Secondary,120.5,1,0,0,1,0,0,21,10.8,1.4,1.74,Graduate
1,43,3,171,1,1,120,1,Basic,Basic,143.3,1,0,0,1,0,1,20,7.6,2.6,0.32,Graduate
1,1,1,9070,1,1,124,1,Basic,Basic,125.4,1,0,0,1,1,0,19,9.4,-0.8,-3.12,Graduate
1,17,5,9773,1,1,134,1,Secondary,Basic,121.8,1,0,0,1,1,0,19,16.2,0.3,-0.92,Graduate
1,1,1,9500,1,1,138,1,Basic,Basic,144.3,0,0,0,1,0,0,20,13.9,-0.3,0.79,Graduate
2,43,1,9238,1,12,100,1,Basic,Basic,134.4,0,0,0,1,0,0,34,7.6,2.6,0.32,Graduate
1,1,1,9853,1,1,135,1,Basic,Secondary,137.1,1,0,0,1,0,0,18,7.6,2.6,0.32,Graduate
1,17,4,9670,1,1,126,1,Basic,Basic,119.4,1,0,0,1,0,1,18,8.9,1.4,3.51,Graduate
1,44,1,9003,1,39,130,1,Secondary,Basic,130,1,0,0,1,1,0,20,16.2,0.3,-0.92,Graduate
2,7,1,9991,0,43,140,1,Higher,Higher,140,0,0,0,1,0,0,33,11.1,0.6,2.02,Graduate
2,39,1,9853,1,1,130,1,Basic,Basic,140,0,0,1,1,0,1,34,9.4,-0.8,-3.12,Graduate
1,1,2,9773,1,1,159,1,Secondary,Secondary,151,1,0,0,1,0,0,18,12.7,3.7,-1.7,Graduate
1,1,3,171,1,1,155,1,Higher,Higher,144.2,1,0,0,1,1,0,19,12.7,3.7,-1.7,Graduate
1,17,3,9070,1,1,130,1,Secondary,Higher,131.4,0,0,0,1,1,0,20,11.1,0.6,2.02,Graduate
1,1,1,9500,1,1,133.1,1,Basic,Basic,101,0,0,0,1,1,0,20,15.5,2.8,-4.06,Graduate
1,17,6,9254,1,1,125,1,Secondary,Secondary,120.5,1,0,0,1,1,0,18,11.1,0.6,2.02,Graduate
1,1,2,9500,1,1,139,1,Higher,Secondary,136.4,1,0,0,1,0,0,19,15.5,2.8,-4.06,Graduate
2,39,1,9991,0,1,120,1,Basic,Basic,120.7,0,0,0,1,0,0,39,7.6,2.6,0.32,Graduate
1,1,6,9500,1,1,141,1,Basic,Secondary,126.8,1,0,0,1,0,0,18,10.8,1.4,1.74,Graduate
1,1,1,9773,1,1,153,1,Secondary,Secondary,157.9,0,0,1,1,0,1,18,8.9,1.4,3.51,Graduate
1,1,1,9773,1,1,135,1,Secondary,Higher,124.9,0,0,0,1,0,1,20,10.8,1.4,1.74,Graduate
1,17,1,9238,1,1,139,1,Basic,Basic,146.7,1,0,0,1,0,1,20,15.5,2.8,-4.06,Graduate
1,1,1,9147,1,1,139,1,Basic,Secondary,127.1,1,0,0,1,1,1,22,12.7,3.7,-1.7,Graduate
1,44,1,9003,1,39,150,1,Basic,Basic,150,1,0,0,1,1,0,20,16.2,0.3,-0.92,Graduate
1,17,3,9500,1,1,129,1,Basic,Basic,120,1,0,0,1,0,1,19,10.8,1.4,1.74,Graduate
1,1,3,9500,1,1,141,1,Higher,Basic,126.8,1,0,0,1,1,0,18,9.4,-0.8,-3.12,Graduate
1,44,1,9238,1,1,140,1,Secondary,Secondary,143.4,0,0,0,1,0,1,21,13.9,-0.3,0.79,Graduate
1,1,1,171,1,1,151,41,Higher,Higher,161.9,1,0,0,1,0,1,19,13.9,-0.3,0.79,Graduate
1,15,1,9670,1,1,130,26,Higher,Secondary,130,0,1,1,1,0,0,20,8.9,1.4,3.51,Graduate
1,1,1,9070,1,1,130,1,Secondary,Basic,118.5,0,1,0,1,0,1,18,8.9,1.4,3.51,Graduate
1,17,1,9085,1,1,129,1,Secondary,Basic,118.2,1,0,0,1,0,1,18,10.8,1.4,1.74,Graduate
1,1,4,9500,1,1,138,1,Basic,Basic,127.8,1,0,0,1,0,0,19,7.6,2.6,0.32,Graduate
1,1,1,9085,1,1,134,1,Secondary,Secondary,133,1,0,0,1,0,1,20,11.1,0.6,2.02,Graduate
1,1,6,9500,1,1,131,1,Basic,Basic,125.3,1,0,0,1,0,1,19,10.8,1.4,1.74,Graduate
1,17,3,9119,1,1,130,1,Secondary,Basic,129.3,0,0,0,1,1,1,18,8.9,1.4,3.51,Graduate
1,1,1,9254,1,1,136,1,Secondary,Secondary,122,1,0,0,1,0,0,18,7.6,2.6,0.32,Graduate
1,1,1,9254,1,1,111,1,Secondary,Secondary,112.4,1,0,0,1,1,0,20,12.4,0.5,1.79,Graduate
1,1,1,9085,1,1,138,1,Secondary,Higher,123,1,0,0,1,0,0,19,15.5,2.8,-4.06,Graduate
1,1,3,9500,1,1,147,1,Secondary,Secondary,134.3,1,0,0,1,0,0,18,12.7,3.7,-1.7,Graduate
1,17,1,9773,1,1,122,1,Secondary,Secondary,116.8,1,0,1,1,0,0,18,16.2,0.3,-0.92,Graduate
1,1,6,9238,1,1,113,1,Secondary,Basic,112.3,1,0,1,1,0,1,20,8.9,1.4,3.51,Graduate
1,1,2,9070,1,1,145,1,Basic,Basic,130,1,0,0,1,1,0,18,8.9,1.4,3.51,Graduate
1,1,1,9500,1,1,133,1,Basic,Basic,130.2,1,0,0,1,1,1,19,16.2,0.3,-0.92,Graduate
1,1,4,9500,1,1,140,1,Basic,Basic,133.2,1,0,0,1,0,1,20,15.5,2.8,-4.06,Graduate
1,17,4,9238,1,1,129,1,Basic,Basic,117.1,1,0,0,1,1,0,21,8.9,1.4,3.51,Graduate
1,1,5,9147,1,1,118,1,Basic,Basic,114.2,1,0,0,1,1,0,20,12.4,0.5,1.79,Graduate
1,17,4,9773,1,1,138,1,Basic,Basic,133.5,1,0,0,0,0,0,18,10.8,1.4,1.74,Graduate
1,1,1,9147,1,1,138,1,Basic,Basic,145,1,0,0,1,0,0,18,7.6,2.6,0.32,Graduate
1,1,5,9500,1,1,127,1,Basic,Basic,120.3,1,0,0,1,0,1,18,10.8,1.4,1.74,Graduate
1,7,1,9500,1,40,170,1,Secondary,Secondary,170,0,0,0,1,0,0,24,16.2,0.3,-0.92,Graduate
1,43,1,9070,1,1,130,1,Basic,Basic,129,1,0,0,1,0,0,25,9.4,-0.8,-3.12,Graduate
1,7,1,9853,1,3,150,1,Basic,Basic,150,0,0,1,0,0,0,25,10.8,1.4,1.74,Graduate
1,43,1,9991,0,1,130,1,Basic,Basic,124,0,0,0,1,1,0,31,9.4,-0.8,-3.12,Graduate
1,17,1,9670,1,1,118,1,Secondary,Basic,118.7,0,0,0,1,1,1,19,12.4,0.5,1.79,Graduate
2,39,1,9254,1,1,130,1,Basic,Basic,120,1,0,0,1,0,0,34,9.4,-0.8,-3.12,Graduate
1,18,1,9500,1,1,123,1,Basic,Basic,118,1,0,0,1,0,1,19,10.8,1.4,1.74,Graduate
2,39,1,9003,1,1,120,1,Basic,Basic,155.8,0,0,0,1,1,0,29,13.9,-0.3,0.79,Graduate
1,1,1,9085,1,1,121,1,Basic,Basic,121,0,0,0,1,0,0,19,7.6,2.6,0.32,Graduate
1,39,2,8014,0,1,100,1,Basic,Basic,100,0,0,0,1,0,0,41,7.6,2.6,0.32,Graduate
1,1,4,9500,1,1,125,1,Basic,Secondary,117.8,1,0,0,1,0,0,18,15.5,2.8,-4.06,Graduate
1,17,1,9085,1,1,128,1,Basic,Basic,116.5,1,0,0,1,1,0,18,10.8,1.4,1.74,Graduate
1,1,1,9500,1,1,154,1,Basic,Basic,142,0,0,0,1,1,0,19,12.7,3.7,-1.7,Graduate
2,1,1,9991,0,1,144,1,Basic,Basic,151.4,0,0,0,1,0,0,28,7.6,2.6,0.32,Graduate
1,1,2,9500,1,1,133,1,Basic,Basic,128.5,1,0,0,1,0,1,19,9.4,-0.8,-3.12,Graduate
1,1,1,9147,1,1,143,1,Secondary,Basic,133.9,0,0,0,1,0,1,18,12.7,3.7,-1.7,Graduate
1,44,1,9003,1,39,160,1,Basic,Basic,160,0,0,0,1,0,1,20,16.2,0.3,-0.92,Graduate
1,1,1,9070,1,1,147,1,Higher,Secondary,149.8,1,0,0,1,1,0,20,16.2,0.3,-0.92,Graduate
1,1,1,171,1,1,146,1,Basic,Basic,153,1,0,0,1,0,1,21,11.1,0.6,2.02,Graduate
1,17,1,9238,1,1,125,1,Secondary,Basic,123.3,0,0,0,1,0,1,19,12.4,0.5,1.79,Graduate
1,1,2,9085,1,1,157,1,Higher,Higher,153.9,1,0,0,1,0,0,18,13.9,-0.3,0.79,Graduate
1,17,1,9147,1,1,139,1,Secondary,Basic,152,0,0,0,1,0,1,18,12.7,3.7,-1.7,Graduate
1,1,1,9238,1,1,125,1,Basic,Basic,121.5,1,0,0,1,0,1,19,12.4,0.5,1.79,Graduate
1,7,1,9238,1,3,140,1,Basic,Basic,140,1,0,0,1,0,0,36,16.2,0.3,-0.92,Graduate
1,1,1,9147,1,1,124,1,Basic,Basic,115.6,0,0,0,1,1,1,20,13.9,-0.3,0.79,Graduate
2,39,1,9003,1,1,120,1,Basic,Basic,148.8,0,0,0,1,0,0,50,8.9,1.4,3.51,Graduate
1,18,1,9500,1,1,178,1,Basic,Secondary,174.7,0,0,0,1,0,0,18,13.9,-0.3,0.79,Graduate
1,1,1,9238,1,1,167,1,Basic,Basic,156.2,0,0,0,1,0,1,18,15.5,2.8,-4.06,Graduate
1,1,6,9500,1,1,141,1,Secondary,Basic,125,1,0,0,1,0,1,18,9.4,-0.8,-3.12,Graduate
1,1,2,9670,1,1,140,1,Higher,Secondary,137.6,1,0,0,1,1,1,21,8.9,1.4,3.51,Graduate
1,5,2,9238,1,1,123,1,Higher,Basic,118.1,1,0,0,1,0,0,19,8.9,1.4,3.51,Graduate
1,39,1,9254,1,1,160,1,Higher,Secondary,116.3,1,0,0,1,0,0,24,9.4,-0.8,-3.12,Graduate
2,39,1,9003,1,1,130,1,Secondary,Basic,152.4,1,0,0,1,0,0,36,8.9,1.4,3.51,Graduate
1,1,3,9254,1,1,123,1,Secondary,Secondary,123.4,1,0,0,1,1,0,18,11.1,0.6,2.02,Graduate
1,18,1,9773,1,1,125,1,Secondary,Secondary,121.5,1,0,0,1,1,0,19,8.9,1.4,3.51,Graduate
1,1,2,9070,1,1,135,1,Secondary,Secondary,129.8,1,0,0,1,0,0,19,9.4,-0.8,-3.12,Graduate
1,1,1,8014,0,1,100,1,Basic,Basic,112.8,0,0,0,1,0,1,23,12.7,3.7,-1.7,Graduate
1,1,6,9500,1,1,118,1,Basic,Basic,114.2,1,0,0,1,0,0,20,11.1,0.6,2.02,Graduate
2,39,1,8014,0,12,110,1,Basic,Basic,120,0,0,0,1,0,0,42,10.8,1.4,1.74,Graduate
2,39,1,8014,0,1,140,1,Basic,Basic,101,0,0,0,1,0,0,35,15.5,2.8,-4.06,Graduate
1,7,1,9147,1,3,130,1,Basic,Basic,130,0,0,0,1,0,0,27,10.8,1.4,1.74,Graduate
1,1,5,9773,1,1,135,1,Basic,Secondary,124.9,1,0,0,1,0,0,18,8.9,1.4,3.51,Graduate
1,17,1,9238,1,1,153,1,Basic,Basic,159.7,1,0,0,1,0,1,18,12.7,3.7,-1.7,Graduate
1,17,5,9500,1,1,137,1,Secondary,Secondary,127.6,1,0,0,1,0,0,18,12.4,0.5,1.79,Graduate
1,17,2,9254,1,1,131,1,Secondary,Basic,130.3,1,0,0,1,0,1,18,13.9,-0.3,0.79,Graduate
1,1,1,9500,1,1,125,1,Basic,Basic,118.8,0,0,0,1,1,0,24,7.6,2.6,0.32,Graduate
2,39,1,8014,0,1,140,1,Basic,Basic,102.5,0,0,0,1,0,1,32,15.5,2.8,-4.06,Graduate
1,1,1,9500,1,1,152,1,Secondary,Secondary,141,1,0,0,1,0,1,18,12.4,0.5,1.79,Graduate
1,1,3,9500,1,1,133.1,1,Basic,Basic,108.5,1,0,0,1,0,0,19,12.4,0.5,1.79,Graduate
1,5,2,9070,1,1,143,1,Secondary,Secondary,146.2,1,0,0,1,1,0,18,16.2,0.3,-0.92,Graduate
6,39,1,8014,0,1,133.1,1,Basic,Secondary,114.8,0,0,0,1,0,1,41,13.9,-0.3,0.79,Graduate
1,1,2,9500,1,1,131,1,Secondary,Secondary,129.5,1,0,0,1,0,1,19,9.4,-0.8,-3.12,Graduate
1,1,1,9085,1,1,126,1,Basic,Basic,123.6,1,0,0,1,0,0,21,10.8,1.4,1.74,Graduate
1,1,3,9500,1,1,137,1,Basic,Basic,131.5,1,0,0,1,0,1,20,9.4,-0.8,-3.12,Graduate
1,1,1,9670,1,1,141,1,Secondary,Basic,132.6,0,0,0,1,0,1,18,11.1,0.6,2.02,Graduate
2,39,1,9991,0,1,120,1,Basic,Basic,138.7,0,0,0,1,1,0,43,10.8,1.4,1.74,Graduate
1,1,5,9500,1,1,133.1,1,Secondary,Secondary,123,1,0,0,1,0,0,19,12.7,3.7,-1.7,Graduate
1,17,1,9500,1,1,145,1,Higher,Higher,141.8,0,0,0,1,0,0,19,9.4,-0.8,-3.12,Graduate
1,1,4,9556,1,1,122,1,Basic,Secondary,123.9,0,0,0,1,0,0,19,13.9,-0.3,0.79,Graduate
1,1,1,9773,1,1,140,1,Secondary,Basic,124.6,1,0,0,1,0,0,19,15.5,2.8,-4.06,Graduate
2,39,1,9991,0,19,133.1,1,Basic,Basic,150.3,0,0,0,1,0,0,47,7.6,2.6,0.32,Graduate
1,44,1,9003,1,39,130,1,Secondary,Higher,130,0,0,0,1,1,1,21,13.9,-0.3,0.79,Graduate
1,17,5,9238,1,1,122,1,Basic,Basic,112.9,1,0,0,1,0,1,19,16.2,0.3,-0.92,Graduate
1,7,1,9991,0,40,133.1,1,Secondary,Basic,100,0,0,0,1,0,0,26,12.4,0.5,1.79,Graduate
1,1,1,171,1,1,145,1,Higher,Secondary,149.9,1,0,0,0,0,0,19,16.2,0.3,-0.92,Graduate
1,17,1,9070,1,1,116,1,Basic,Basic,123.7,0,0,0,1,0,0,20,11.1,0.6,2.02,Graduate
2,39,1,8014,0,1,133.1,1,Basic,Secondary,144.3,0,0,0,1,1,0,41,10.8,1.4,1.74,Graduate
1,1,2,9500,1,1,141,1,Basic,Basic,130.2,1,0,0,1,0,0,21,15.5,2.8,-4.06,Graduate
1,1,1,9500,1,1,140,1,Secondary,Secondary,123.5,1,0,0,1,0,1,19,9.4,-0.8,-3.12,Graduate
1,17,1,9773,1,1,161,1,Secondary,Basic,148.4,0,0,0,1,0,1,19,15.5,2.8,-4.06,Graduate
1,17,1,9070,1,1,139,1,Secondary,Basic,131.3,1,0,0,1,0,0,19,7.6,2.6,0.32,Graduate
1,1,1,171,1,1,163,1,Higher,Higher,175.6,1,0,0,1,0,0,18,11.1,0.6,2.02,Graduate
1,7,1,9853,1,40,110,1,Higher,Higher,110,0,0,1,1,0,0,40,12.4,0.5,1.79,Graduate
1,17,4,9238,1,1,129,1,Basic,Basic,123.1,1,0,0,1,0,0,19,11.1,0.6,2.02,Graduate
1,1,1,9238,1,1,121,1,Secondary,Secondary,115.1,1,0,0,1,0,0,19,11.1,0.6,2.02,Graduate
1,1,1,9070,1,1,124,1,Basic,Basic,116.3,1,0,0,1,0,0,20,16.2,0.3,-0.92,Graduate
1,17,1,9085,1,1,142,1,Higher,Basic,132.4,1,0,0,1,0,0,18,12.4,0.5,1.79,Graduate
1,1,1,9238,1,1,136,1,Higher,Higher,126.2,0,0,0,1,1,0,22,10.8,1.4,1.74,Graduate
1,1,2,9085,1,1,120,1,Basic,Secondary,118.3,1,0,0,1,0,0,20,9.4,-0.8,-3.12,Graduate
1,1,1,9238,1,1,117,1,Basic,Basic,113.2,1,0,1,1,0,0,20,11.1,0.6,2.02,Graduate
1,39,1,8014,0,1,120,1,Basic,Basic,108,0,0,0,1,1,1,37,13.9,-0.3,0.79,Graduate
1,1,2,9670,1,1,135,1,Basic,Basic,121.4,0,0,0,1,1,0,19,9.4,-0.8,-3.12,Graduate
1,1,6,9119,1,1,126,1,Basic,Basic,116.6,1,0,0,1,1,1,20,8.9,1.4,3.51,Graduate
1,1,6,9254,1,1,126,1,Basic,Basic,123.9,1,0,0,1,0,1,18,12.4,0.5,1.79,Graduate
1,42,1,9500,1,1,168,1,Basic,Secondary,133.4,1,0,0,1,0,0,23,15.5,2.8,-4.06,Graduate
1,1,6,9254,1,1,129,1,Basic,Basic,117.8,1,0,0,1,0,0,18,8.9,1.4,3.51,Graduate
1,39,1,9991,0,12,120,1,Basic,Basic,155.7,0,0,0,1,1,0,33,10.8,1.4,1.74,Graduate
1,1,1,9085,1,1,130,1,Basic,Basic,126.9,0,0,1,1,0,0,24,11.1,0.6,2.02,Graduate
1,1,1,9670,1,1,123,1,Secondary,Secondary,119.2,1,0,0,1,0,1,18,12.4,0.5,1.79,Graduate
1,39,1,9500,1,19,133.1,1,Basic,Basic,120,0,0,0,1,0,1,25,9.4,-0.8,-3.12,Graduate
1,1,6,9500,1,1,141,1,Higher,Secondary,136.3,1,0,0,1,0,0,19,10.8,1.4,1.74,Graduate
1,17,4,9500,1,1,143,1,Basic,Basic,131.5,1,0,0,1,1,1,18,13.9,-0.3,0.79,Graduate
1,1,1,9238,1,1,145,1,Basic,Secondary,127.9,1,0,0,1,0,0,19,12.7,3.7,-1.7,Graduate
4,39,1,9003,1,12,133.1,1,Basic,Basic,160,0,0,0,1,0,0,43,15.5,2.8,-4.06,Graduate
1,17,1,9130,1,1,131,1,Secondary,Secondary,128.2,1,0,0,1,1,0,18,12.4,0.5,1.79,Graduate
2,39,1,9556,1,1,100,6,Basic,Basic,130,0,0,0,1,0,0,32,12.7,3.7,-1.7,Graduate
1,17,1,9773,1,1,136,1,Basic,Basic,121.7,1,0,0,1,1,1,19,12.7,3.7,-1.7,Graduate
1,1,1,9500,1,1,150,1,Basic,Secondary,137.8,0,0,0,1,0,0,18,15.5,2.8,-4.06,Graduate
1,18,6,9500,1,1,126,1,Basic,Basic,122.8,1,0,0,1,0,0,18,9.4,-0.8,-3.12,Graduate
1,7,1,9070,1,40,120,1,Secondary,Basic,120,1,0,0,1,0,0,21,13.9,-0.3,0.79,Graduate
1,1,2,171,1,1,117,1,Basic,Basic,120.2,1,0,0,1,1,0,19,7.6,2.6,0.32,Graduate
1,1,1,9773,1,1,128,1,Basic,Basic,116.5,0,0,0,1,1,1,18,10.8,1.4,1.74,Graduate
1,1,1,9670,1,1,117,1,Secondary,Basic,113.5,1,0,0,1,0,0,20,9.4,-0.8,-3.12,Graduate
1,1,3,9556,1,1,122,1,Basic,Basic,113.3,1,0,0,1,0,1,20,12.4,0.5,1.79,Graduate
1,18,2,9238,1,1,121,1,Basic,Secondary,121.4,1,0,0,1,0,1,19,15.5,2.8,-4.06,Graduate
2,44,1,9003,1,39,160,1,Basic,Basic,160,0,0,0,1,0,0,43,15.5,2.8,-4.06,Graduate
1,43,1,9991,0,3,120,1,Basic,Basic,120,0,0,0,1,0,0,37,12.7,3.7,-1.7,Graduate
1,1,1,9500,1,1,130,1,Secondary,Basic,120,0,0,0,1,0,0,19,7.6,2.6,0.32,Graduate
1,1,1,9238,1,1,140,1,Secondary,Basic,140.7,0,0,0,1,0,0,19,12.4,0.5,1.79,Graduate
1,18,1,9147,1,1,160,1,Basic,Basic,137.6,1,0,0,1,0,1,19,10.8,1.4,1.74,Graduate
1,17,1,9238,1,1,136,1,Basic,Secondary,129.7,0,0,0,1,0,0,19,15.5,2.8,-4.06,Graduate
1,17,6,9500,1,1,131,1,Higher,Basic,127.2,1,0,0,1,0,1,19,11.1,0.6,2.02,Graduate
1,17,1,9238,1,1,137,1,Basic,Basic,131.1,1,0,0,1,0,1,18,8.9,1.4,3.51,Graduate
2,39,1,8014,0,1,130,1,Unknown,Unknown,114.8,0,0,0,1,0,0,44,7.6,2.6,0.32,Graduate
1,1,1,171,1,1,150,1,Basic,Basic,137.8,1,0,0,1,1,1,19,13.9,-0.3,0.79,Graduate
1,1,1,9500,1,1,176,1,Higher,Basic,169.7,0,0,0,1,0,1,18,16.2,0.3,-0.92,Graduate
1,1,2,9500,1,1,142,1,Basic,Basic,132.7,1,0,0,1,0,1,19,13.9,-0.3,0.79,Graduate
1,1,1,9147,1,1,158,1,Basic,Basic,130,1,0,0,1,0,0,20,7.6,2.6,0.32,Graduate
1,1,2,9085,1,1,122,1,Higher,Secondary,116.1,1,0,0,1,0,0,18,15.5,2.8,-4.06,Graduate
1,39,1,8014,0,1,120,1,Basic,Basic,148.5,0,0,0,1,0,1,31,10.8,1.4,1.74,Graduate
2,39,1,8014,0,1,150,1,Basic,Basic,143,0,0,0,1,0,0,40,12.7,3.7,-1.7,Graduate
1,42,1,9991,0,1,150,1,Basic,Basic,113.7,0,0,0,1,1,0,30,16.2,0.3,-0.92,Graduate
1,44,1,9991,0,39,120,1,Basic,Basic,120,1,0,0,1,0,1,23,9.4,-0.8,-3.12,Graduate
1,1,3,9773,1,1,153,1,Higher,Secondary,137.6,1,0,0,1,0,0,18,12.4,0.5,1.79,Graduate
1,39,1,9500,1,1,114,1,Basic,Basic,130,0,0,0,1,1,0,25,12.7,3.7,-1.7,Graduate
1,44,1,9003,1,39,120,1,Basic,Basic,120,1,0,0,1,1,0,19,12.4,0.5,1.79,Graduate
1,17,3,9500,1,1,138,1,Secondary,Basic,129.3,1,0,0,1,0,1,18,12.4,0.5,1.79,Graduate
1,1,1,9500,1,1,141,1,Secondary,Secondary,142.8,0,0,0,1,0,0,18,11.1,0.6,2.02,Graduate
1,17,6,9773,1,1,138,1,Secondary,Secondary,140.5,1,0,0,1,0,0,19,7.6,2.6,0.32,Graduate
1,18,1,8014,0,1,138,1,Basic,Secondary,134.5,1,0,0,1,0,0,19,12.4,0.5,1.79,Graduate
1,1,1,9085,1,1,129,1,Basic,Basic,117.5,1,0,0,1,0,0,19,12.7,3.7,-1.7,Graduate
4,43,1,9670,1,1,150,1,Basic,Basic,110,0,0,0,1,0,0,40,9.4,-0.8,-3.12,Graduate
1,44,1,9085,1,39,150,1,Higher,Higher,150,1,0,0,1,0,0,22,13.9,-0.3,0.79,Graduate
1,17,2,9500,1,1,140,1,Basic,Basic,132.5,1,0,0,1,0,0,18,7.6,2.6,0.32,Graduate
1,17,3,9670,1,1,125,1,Secondary,Higher,117.3,1,0,0,1,0,0,18,8.9,1.4,3.51,Graduate
1,17,1,9085,1,1,120,1,Higher,Higher,116.1,0,0,0,1,0,0,20,9.4,-0.8,-3.12,Graduate
1,1,1,9773,1,1,134,1,Basic,Basic,131.6,1,1,0,1,0,0,19,10.8,1.4,1.74,Graduate
2,39,1,8014,0,19,100,1,Secondary,Basic,130,0,0,1,1,0,1,33,9.4,-0.8,-3.12,Graduate
1,18,1,9500,1,1,124,1,Basic,Basic,119.3,1,0,0,1,0,0,19,9.4,-0.8,-3.12,Graduate
1,39,1,9500,1,3,130,1,Higher,Higher,130,0,0,0,1,0,0,29,12.7,3.7,-1.7,Graduate
1,1,1,9853,1,1,122,1,Higher,Basic,112.9,0,0,0,1,0,0,18,16.2,0.3,-0.92,Graduate
1,1,4,9500,1,1,128,1,Secondary,Basic,117.9,1,0,0,1,0,1,19,12.4,0.5,1.79,Graduate
1,1,1,9500,1,1,141,1,Basic,Basic,139.8,0,0,0,1,0,1,19,12.7,3.7,-1.7,Graduate
1,1,6,9254,1,1,102,1,Higher,Secondary,101.7,1,0,0,1,1,1,21,12.4,0.5,1.79,Graduate
1,43,1,9003,1,1,150,1,Higher,Higher,150,0,0,0,1,1,0,35,15.5,2.8,-4.06,Graduate
1,1,3,171,1,1,145,1,Secondary,Secondary,140.1,1,0,0,1,0,0,20,8.9,1.4,3.51,Graduate
1,18,1,9853,1,1,117,1,Basic,Basic,113.5,1,0,0,1,0,0,19,12.4,0.5,1.79,Graduate
2,39,1,9238,1,1,126.6,1,Basic,Basic,107.5,0,0,1,1,0,1,42,11.1,0.6,2.02,Graduate
1,1,1,9238,1,1,124,1,Basic,Basic,114.2,0,0,0,1,0,0,18,15.5,2.8,-4.06,Graduate
1,1,1,9773,1,1,140,1,Basic,Basic,142.5,1,0,0,1,0,0,18,9.4,-0.8,-3.12,Graduate
1,1,1,9500,1,1,126,1,Basic,Basic,123.9,0,0,0,1,0,0,19,11.1,0.6,2.02,Graduate
1,39,1,9500,1,40,130,1,Secondary,Secondary,190,1,0,0,1,0,0,27,16.2,0.3,-0.92,Graduate
1,1,6,9500,1,1,133,1,Secondary,Secondary,119.7,1,1,1,1,1,0,19,12.4,0.5,1.79,Graduate
2,43,1,9500,1,1,137,1,Higher,Higher,115,0,0,0,1,0,0,28,13.9,-0.3,0.79,Graduate
1,42,1,9119,1,1,150,1,Basic,Basic,133.5,1,0,0,1,1,0,21,9.4,-0.8,-3.12,Graduate
1,1,5,9254,1,1,131,1,Basic,Basic,123.7,0,0,0,1,0,1,19,8.9,1.4,3.51,Graduate
1,1,2,9670,1,1,130,1,Basic,Basic,123.4,1,0,0,1,0,0,21,9.4,-0.8,-3.12,Graduate
1,1,1,9003,1,1,133.1,1,Basic,Basic,115,0,0,1,1,1,0,21,15.5,2.8,-4.06,Graduate
1,1,2,9773,1,1,121,1,Secondary,Basic,118.9,1,0,0,1,0,0,20,11.1,0.6,2.02,Graduate
1,1,1,9085,1,1,127,1,Basic,Higher,123.2,1,0,0,1,0,1,18,12.4,0.5,1.79,Graduate
1,17,2,9254,1,1,136,1,Basic,Basic,123.1,1,0,0,1,0,0,19,11.1,0.6,2.02,Graduate
1,1,2,8014,0,1,107,1,Basic,Basic,103.5,1,0,0,1,0,0,22,7.6,2.6,0.32,Graduate
1,1,3,171,1,1,137,1,Secondary,Higher,133.9,1,0,0,1,1,0,19,12.7,3.7,-1.7,Graduate
1,1,2,9853,1,1,112,1,Basic,Basic,106.1,1,0,1,1,0,1,20,8.9,1.4,3.51,Graduate
1,1,4,9500,1,1,148,1,Secondary,Basic,132,1,0,0,1,0,0,18,7.6,2.6,0.32,Graduate
1,1,1,9147,1,1,125,1,Basic,Secondary,114.5,1,0,0,1,1,0,19,9.4,-0.8,-3.12,Graduate
1,43,1,9670,1,1,127,22,Basic,Basic,127,1,0,0,1,1,0,23,9.4,-0.8,-3.12,Graduate
1,1,3,9773,1,1,121,1,Basic,Basic,116.1,0,0,0,1,0,1,18,12.4,0.5,1.79,Graduate
1,17,2,9500,1,1,130,1,Basic,Basic,122.5,1,0,0,1,0,0,19,10.8,1.4,1.74,Graduate
1,1,1,9238,1,1,133,1,Secondary,Basic,132,0,0,0,1,1,1,20,16.2,0.3,-0.92,Graduate
1,17,1,9773,1,1,130,1,Basic,Basic,126.2,0,0,0,1,1,1,18,16.2,0.3,-0.92,Graduate
2,39,1,9254,1,19,133.1,1,Basic,Basic,156.5,0,0,0,1,1,0,53,16.2,0.3,-0.92,Graduate
1,17,1,9500,1,1,130,1,Basic,Secondary,130.4,1,0,0,1,0,1,19,11.1,0.6,2.02,Graduate
1,43,1,8014,0,12,114,1,Unknown,Unknown,110,0,0,0,1,0,0,29,7.6,2.6,0.32,Graduate
1,1,1,9254,1,1,116,1,Basic,Basic,110.8,1,0,0,1,0,0,18,11.1,0.6,2.02,Graduate
1,1,1,9853,1,1,142,1,Secondary,Secondary,132.6,1,0,0,1,0,0,18,7.6,2.6,0.32,Graduate
1,1,2,9085,1,1,141,1,Secondary,Basic,128.9,1,0,0,1,0,1,18,8.9,1.4,3.51,Graduate
1,1,6,9147,1,1,112,1,Basic,Basic,117.3,1,0,0,1,0,0,20,11.1,0.6,2.02,Graduate
1,44,1,9085,1,39,160,1,Secondary,Secondary,160,0,0,0,1,1,0,21,9.4,-0.8,-3.12,Graduate
1,1,1,171,1,1,156,1,Basic,Basic,170,1,0,0,1,1,0,22,7.6,2.6,0.32,Graduate
1,1,1,171,1,1,156,1,Basic,Basic,153.6,1,0,0,1,0,0,18,9.4,-0.8,-3.12,Graduate
1,44,1,9085,1,39,150,1,Higher,Basic,150,1,0,0,1,0,0,22,12.4,0.5,1.79,Graduate
1,17,4,9670,1,1,122,1,Higher,Secondary,119.6,1,0,0,1,1,0,18,11.1,0.6,2.02,Graduate
1,1,1,9085,1,1,134,1,Basic,Basic,136.8,1,0,0,1,1,0,20,10.8,1.4,1.74,Graduate
1,39,1,9500,1,1,130,1,Secondary,Secondary,150,0,0,0,1,1,0,24,12.7,3.7,-1.7,Graduate
1,44,1,9085,1,39,150,1,Basic,Basic,150,1,0,0,1,1,1,22,12.4,0.5,1.79,Graduate
1,1,3,9070,1,1,147,1,Unknown,Basic,135.8,1,0,0,1,0,0,20,9.4,-0.8,-3.12,Graduate
1,39,1,9500,1,3,133.8,1,Higher,Basic,184,0,0,0,1,0,0,28,15.5,2.8,-4.06,Graduate
1,1,6,9773,1,1,125,1,Secondary,Secondary,122.2,0,0,0,1,1,0,19,15.5,2.8,-4.06,Graduate
1,17,1,9773,1,1,115,1,Basic,Basic,116.1,1,0,0,1,0,1,18,13.9,-0.3,0.79,Graduate
1,1,2,9773,1,1,131,1,Basic,Basic,121.9,1,0,0,1,0,1,18,11.1,0.6,2.02,Graduate
1,17,1,9238,1,1,145,1,Secondary,Higher,129.6,0,0,0,1,0,1,19,11.1,0.6,2.02,Graduate
1,39,1,9003,1,1,100,1,Basic,Basic,110,0,0,0,1,0,0,41,15.5,2.8,-4.06,Graduate
1,1,6,9500,1,1,151,1,Higher,Secondary,129.8,1,0,0,1,1,0,18,9.4,-0.8,-3.12,Graduate
1,1,1,9130,1,1,137,1,Higher,Basic,129.3,1,0,0,1,0,0,18,9.4,-0.8,-3.12,Graduate
2,1,1,9500,1,1,137,1,Higher,Basic,121,0,0,0,1,0,1,19,10.8,1.4,1.74,Graduate
1,1,3,9085,1,1,130,1,Secondary,Basic,121.3,1,0,0,1,0,1,19,10.8,1.4,1.74,Graduate
1,1,4,9500,1,1,137,1,Basic,Basic,126,1,0,0,1,0,0,19,15.5,2.8,-4.06,Graduate
1,39,1,8014,0,19,133.1,1,Basic,Basic,106.5,0,0,0,1,0,1,32,12.7,3.7,-1.7,Graduate
1,1,1,9147,1,1,131,1,Basic,Basic,130,1,0,0,1,1,0,19,10.8,1.4,1.74,Graduate
1,17,2,9238,1,1,125,1,Basic,Basic,118,1,0,0,1,0,0,18,8.9,1.4,3.51,Graduate
1,17,1,9500,1,1,131,1,Higher,Basic,132.3,1,0,0,1,0,0,19,7.6,2.6,0.32,Graduate
1,1,1,9500,1,1,162,1,Basic,Secondary,147.5,1,0,0,1,0,1,18,9.4,-0.8,-3.12,Graduate
4,43,1,9991,0,1,164,1,Basic,Basic,131.8,0,0,0,1,0,0,31,9.4,-0.8,-3.12,Graduate
1,7,1,8014,0,3,120,1,Basic,Basic,121.3,0,0,0,1,0,0,32,12.7,3.7,-1.7,Graduate
2,39,1,9991,0,1,160,1,Basic,Basic,160,0,0,0,1,0,0,35,15.5,2.8,-4.06,Graduate
1,1,1,171,1,1,147,1,Secondary,Secondary,148.4,1,0,0,1,1,1,20,11.1,0.6,2.02,Graduate
1,1,5,9238,1,1,126,1,Basic,Basic,121.5,1,0,0,1,0,0,18,7.6,2.6,0.32,Graduate
1,1,4,9500,1,1,123,1,Secondary,Secondary,113.6,1,0,0,1,0,0,21,12.4,0.5,1.79,Graduate
1,42,1,9085,1,1,100,1,Secondary,Basic,100,1,0,0,1,0,1,20,13.9,-0.3,0.79,Graduate
1,44,1,9070,1,39,130,1,Secondary,Secondary,130,1,0,0,1,0,0,19,16.2,0.3,-0.92,Graduate
1,1,2,9238,1,1,136,1,Basic,Basic,139.2,1,0,0,1,0,0,18,9.4,-0.8,-3.12,Graduate
1,1,3,9500,1,1,137,1,Basic,Basic,122.7,1,0,0,1,0,1,18,16.2,0.3,-0.92,Graduate
1,1,1,171,1,1,138,1,Secondary,Secondary,141.5,0,0,0,1,1,0,19,7.6,2.6,0.32,Graduate
1,1,1,9130,1,1,130,1,Higher,Basic,133,1,0,0,1,0,0,19,12.4,0.5,1.79,Graduate
2,39,2,9147,1,1,130,1,Basic,Basic,140,0,0,0,1,1,0,34,9.4,-0.8,-3.12,Graduate
1,17,1,171,1,1,125,1,Secondary,Secondary,143.9,1,0,0,1,0,0,20,15.5,2.8,-4.06,Dropout_Enrolled
1,17,1,171,1,1,123,1,Higher,Secondary,116.4,1,0,1,1,1,0,19,10.8,1.4,1.74,Dropout_Enrolled
1,39,1,9238,1,19,133.1,1,Basic,Basic,120,0,1,1,1,0,0,40,16.2,0.3,-0.92,Dropout_Enrolled
1,1,1,171,1,1,114,1,Higher,Basic,111.9,0,0,0,0,1,0,18,9.4,-0.8,-3.12,Dropout_Enrolled
1,39,1,9991,0,1,133.1,1,Basic,Secondary,151.2,0,0,0,1,1,0,25,12.4,0.5,1.79,Dropout_Enrolled
1,1,4,9147,1,1,117,1,Secondary,Basic,117,1,0,0,1,1,0,19,12.4,0.5,1.79,Dropout_Enrolled
1,17,1,9119,1,1,141,1,Basic,Secondary,133,1,0,0,1,1,0,18,7.6,2.6,0.32,Dropout_Enrolled
1,17,1,9500,1,1,141,1,Higher,Basic,135.4,1,0,0,1,0,0,18,13.9,-0.3,0.79,Dropout_Enrolled
1,17,2,9254,1,1,125,1,Basic,Basic,122.6,1,0,1,0,0,0,20,11.1,0.6,2.02,Dropout_Enrolled
1,43,1,9130,1,1,100,41,Higher,Higher,100,0,0,0,1,0,0,19,9.4,-0.8,-3.12,Dropout_Enrolled
1,42,1,9003,1,39,140,1,Basic,Secondary,140,0,0,0,1,0,0,22,15.5,2.8,-4.06,Dropout_Enrolled
1,1,1,171,1,1,133.1,1,Secondary,Basic,118,0,0,0,1,1,0,22,11.1,0.6,2.02,Dropout_Enrolled
1,39,2,9147,1,1,120,1,Basic,Basic,104,0,0,0,0,1,0,26,10.8,1.4,1.74,Dropout_Enrolled
1,51,1,9147,1,1,130,1,Secondary,Secondary,120,0,0,0,1,0,0,21,11.1,0.6,2.02,Dropout_Enrolled
1,1,1,9147,1,1,115,1,Basic,Secondary,118.5,0,0,0,1,1,0,21,7.6,2.6,0.32,Dropout_Enrolled
1,43,1,9991,0,1,161,1,Basic,Basic,100,1,0,0,1,0,0,27,7.6,2.6,0.32,Dropout_Enrolled
1,1,1,9085,1,1,132,1,Higher,Higher,128.5,0,0,0,1,0,0,18,12.4,0.5,1.79,Dropout_Enrolled
1,1,1,9670,1,1,120,1,Basic,Basic,115.1,0,0,0,1,0,0,19,10.8,1.4,1.74,Dropout_Enrolled
1,7,2,9085,1,3,130,1,Higher,Higher,130,0,0,0,0,0,0,28,10.8,1.4,1.74,Dropout_Enrolled
1,7,1,9500,1,3,140,1,Unknown,Unknown,140,0,0,0,1,0,0,28,7.6,2.6,0.32,Dropout_Enrolled
1,17,1,9773,1,1,145,1,Secondary,Basic,132.8,1,0,0,0,1,0,21,10.8,1.4,1.74,Dropout_Enrolled
1,7,1,9070,1,3,133.1,1,Higher,Higher,120,1,0,0,1,0,0,32,7.6,2.6,0.32,Dropout_Enrolled
1,1,3,9500,1,1,143,1,Basic,Basic,133.8,1,0,0,1,0,0,18,9.4,-0.8,-3.12,Dropout_Enrolled
1,44,1,9070,1,39,120,1,Secondary,Basic,119.8,0,0,0,1,1,0,21,12.4,0.5,1.79,Dropout_Enrolled
1,39,1,9556,1,1,133.1,6,Higher,Higher,169.2,0,0,1,0,0,0,54,12.4,0.5,1.79,Dropout_Enrolled
1,1,3,9254,1,1,115,1,Secondary,Secondary,117.5,1,0,0,1,0,0,18,9.4,-0.8,-3.12,Dropout_Enrolled
1,17,1,9853,1,1,135,1,Higher,Higher,132.9,1,0,0,0,0,0,29,12.7,3.7,-1.7,Dropout_Enrolled
1,17,1,9119,1,1,126,1,Secondary,Secondary,116.2,0,0,1,0,1,0,21,7.6,2.6,0.32,Dropout_Enrolled
1,17,3,9147,1,1,125,1,Basic,Basic,125.7,0,0,0,1,0,0,20,15.5,2.8,-4.06,Dropout_Enrolled
1,17,1,171,1,1,146,1,Secondary,Basic,135.5,1,0,1,1,0,0,22,11.1,0.6,2.02,Dropout_Enrolled
1,7,1,9991,0,40,130,1,Basic,Basic,130,0,0,0,1,1,0,38,8.9,1.4,3.51,Dropout_Enrolled
1,1,1,9085,1,1,123,1,Higher,Secondary,112.9,0,0,0,1,1,0,18,7.6,2.6,0.32,Dropout_Enrolled
1,1,6,9119,1,1,135,1,Higher,Secondary,123.5,1,0,0,1,1,0,18,7.6,2.6,0.32,Dropout_Enrolled
1,1,1,171,1,1,124,1,Secondary,Basic,113.9,1,1,0,1,0,0,19,13.9,-0.3,0.79,Dropout_Enrolled
1,1,5,9070,1,1,123,1,Higher,Secondary,121.3,1,0,0,1,0,0,20,12.4,0.5,1.79,Dropout_Enrolled
1,39,1,9003,1,1,110,1,Basic,Basic,120,0,0,1,0,1,0,31,16.2,0.3,-0.92,Dropout_Enrolled
2,39,1,9085,1,12,133.1,1,Secondary,Secondary,140,1,0,1,0,0,0,32,13.9,-0.3,0.79,Dropout_Enrolled
1,17,5,171,1,1,122,1,Basic,Secondary,127.3,1,0,0,1,1,0,20,10.8,1.4,1.74,Dropout_Enrolled
1,1,2,9238,1,1,145,1,Secondary,Basic,121.4,0,0,0,1,0,0,20,9.4,-0.8,-3.12,Dropout_Enrolled
1,1,1,9130,1,1,144,1,Higher,Secondary,134.9,1,0,1,1,0,0,18,15.5,2.8,-4.06,Dropout_Enrolled
4,39,1,9991,0,1,130,1,Basic,Basic,127.6,0,0,0,1,1,0,29,7.6,2.6,0.32,Dropout_Enrolled
1,39,1,9254,1,1,133.1,1,Basic,Secondary,101,0,0,1,1,0,0,25,15.5,2.8,-4.06,Dropout_Enrolled
1,1,1,9147,1,1,124,1,Basic,Basic,115.6,1,0,0,0,1,0,20,9.4,-0.8,-3.12,Dropout_Enrolled
1,17,2,9070,1,1,142,1,Higher,Secondary,141,1,0,0,1,1,0,18,10.8,1.4,1.74,Dropout_Enrolled
1,39,1,9670,1,1,120,1,Unknown,Unknown,104,1,0,0,1,0,0,24,7.6,2.6,0.32,Dropout_Enrolled
1,43,2,9147,1,1,131,1,Basic,Basic,123.7,1,0,0,1,0,0,18,7.6,2.6,0.32,Dropout_Enrolled
1,39,1,9085,1,12,133.1,1,Unknown,Unknown,128.2,0,0,1,0,1,0,27,7.6,2.6,0.32,Dropout_Enrolled
1,39,1,9003,1,19,133.1,1,Basic,Basic,110,0,0,1,0,0,0,40,11.1,0.6,2.02,Dropout_Enrolled
1,39,1,9991,0,1,100,1,Basic,Basic,121.9,0,0,0,0,0,0,40,12.7,3.7,-1.7,Dropout_Enrolled
2,39,1,9991,0,1,133.1,1,Basic,Basic,140,0,0,1,1,1,0,37,9.4,-0.8,-3.12,Dropout_Enrolled
1,1,1,9500,1,1,136,1,Higher,Higher,120,1,0,0,1,1,0,18,7.6,2.6,0.32,Dropout_Enrolled
1,17,1,9147,1,1,133.1,1,Basic,Basic,100,0,0,0,1,1,0,21,16.2,0.3,-0.92,Dropout_Enrolled
2,39,1,9773,1,19,100,1,Basic,Basic,163.5,0,0,1,0,1,0,50,10.8,1.4,1.74,Dropout_Enrolled
1,1,1,9991,0,1,122,1,Basic,Basic,113.6,0,0,0,1,1,0,26,7.6,2.6,0.32,Dropout_Enrolled
1,17,1,9254,1,1,132,1,Basic,Basic,126.1,0,0,0,1,1,0,20,7.6,2.6,0.32,Dropout_Enrolled
1,17,1,9070,1,1,134,1,Secondary,Secondary,133.3,1,0,0,1,1,0,18,7.6,2.6,0.32,Dropout_Enrolled
1,44,1,9003,1,39,160,1,Basic,Basic,160,1,0,0,0,1,0,30,15.5,2.8,-4.06,Dropout_Enrolled
1,1,1,9254,1,1,125,1,Secondary,Higher,121.9,1,0,0,1,1,0,18,10.8,1.4,1.74,Dropout_Enrolled
5,39,1,9119,1,1,120,1,Basic,Basic,116,0,0,1,1,1,1,34,9.4,-0.8,-3.12,Dropout_Enrolled
2,7,1,9130,1,3,140,1,Higher,Higher,140,0,0,1,0,0,0,29,7.6,2.6,0.32,Dropout_Enrolled
1,17,1,9254,1,1,127,1,Secondary,Secondary,126.7,1,0,0,0,1,0,22,12.4,0.5,1.79,Dropout_Enrolled
1,44,1,9003,1,39,140,1,Basic,Basic,140,0,0,0,1,1,0,20,12.4,0.5,1.79,Dropout_Enrolled
1,39,1,9991,0,1,133.1,1,Basic,Basic,111,0,0,0,0,1,0,28,8.9,1.4,3.51,Dropout_Enrolled
1,39,1,9500,1,1,148,1,Higher,Basic,130,0,0,0,1,0,0,24,12.7,3.7,-1.7,Dropout_Enrolled
1,17,4,9070,1,1,125,1,Secondary,Higher,128.9,0,0,0,1,0,1,18,8.9,1.4,3.51,Dropout_Enrolled
1,39,1,9500,1,1,130,1,Basic,Basic,120,1,0,0,1,0,1,25,9.4,-0.8,-3.12,Dropout_Enrolled
1,39,1,9003,1,1,100,1,Secondary,Higher,120,0,0,1,0,1,0,44,15.5,2.8,-4.06,Dropout_Enrolled
1,17,1,9670,1,1,140,1,Secondary,Secondary,133.4,0,0,0,1,1,0,24,10.8,1.4,1.74,Dropout_Enrolled
1,17,4,9119,1,1,127,1,Basic,Basic,120.4,1,0,1,0,1,0,18,9.4,-0.8,-3.12,Dropout_Enrolled
1,43,1,9670,1,1,134,1,Secondary,Basic,120.7,0,0,1,0,0,0,19,15.5,2.8,-4.06,Dropout_Enrolled
1,17,1,9147,1,1,126,1,Basic,Basic,116.9,0,0,0,1,1,1,19,12.7,3.7,-1.7,Dropout_Enrolled
1,17,1,9500,1,1,137,1,Secondary,Secondary,127.9,1,0,0,1,0,1,18,11.1,0.6,2.02,Dropout_Enrolled
1,42,1,9003,1,1,140,1,Basic,Basic,140,1,0,0,1,1,0,25,15.5,2.8,-4.06,Dropout_Enrolled
1,17,2,9147,1,1,133.1,1,Basic,Basic,109,1,0,0,1,1,1,22,10.8,1.4,1.74,Dropout_Enrolled
1,51,1,9147,1,1,135,1,Secondary,Secondary,118.5,0,0,0,1,0,0,25,11.1,0.6,2.02,Dropout_Enrolled
1,39,1,9003,1,1,130,1,Basic,Basic,150,0,0,1,0,1,0,28,11.1,0.6,2.02,Dropout_Enrolled
2,39,1,9991,0,9,133.1,1,Unknown,Unknown,118.4,0,0,0,0,0,0,39,7.6,2.6,0.32,Dropout_Enrolled
1,1,1,9254,1,1,128,1,Basic,Basic,127,0,0,0,1,0,0,19,12.4,0.5,1.79,Dropout_Enrolled
1,1,1,9147,1,1,143,1,Secondary,Basic,135,1,0,0,1,0,0,21,7.6,2.6,0.32,Dropout_Enrolled
2,39,1,8014,0,1,120,1,Unknown,Unknown,104,0,0,0,1,0,0,54,7.6,2.6,0.32,Dropout_Enrolled
2,39,2,9991,0,1,100,1,Basic,Basic,100,1,0,0,1,1,0,51,12.7,3.7,-1.7,Dropout_Enrolled
1,17,3,171,1,1,125,1,Higher,Secondary,117,1,1,0,1,1,0,22,10.8,1.4,1.74,Dropout_Enrolled
4,39,1,9500,1,1,133.1,1,Secondary,Basic,154.3,0,0,0,1,0,0,32,12.4,0.5,1.79,Dropout_Enrolled
1,44,1,9130,1,39,120,1,Basic,Basic,120,1,0,1,0,0,0,19,12.4,0.5,1.79,Dropout_Enrolled
2,39,1,9991,0,1,100,1,Basic,Basic,113,0,0,0,1,1,1,41,8.9,1.4,3.51,Dropout_Enrolled
1,1,4,9500,1,1,140,1,Secondary,Basic,127.5,0,0,0,1,0,0,18,12.7,3.7,-1.7,Dropout_Enrolled
1,17,4,9773,1,1,119,1,Basic,Basic,118.3,0,0,0,1,0,0,19,15.5,2.8,-4.06,Dropout_Enrolled
1,17,1,9238,1,1,136,1,Basic,Basic,140.9,1,0,0,1,1,0,18,9.4,-0.8,-3.12,Dropout_Enrolled
1,39,1,8014,0,1,133.1,1,Basic,Basic,121,0,0,1,0,0,0,44,8.9,1.4,3.51,Dropout_Enrolled
1,1,1,9773,1,1,117,1,Secondary,Basic,109.3,0,0,0,1,1,0,19,7.6,2.6,0.32,Dropout_Enrolled
2,39,1,9991,0,1,130,1,Basic,Basic,127.8,0,0,0,1,1,0,37,7.6,2.6,0.32,Dropout_Enrolled
1,42,1,9853,1,1,120,1,Basic,Basic,113.7,0,0,0,1,0,0,20,12.7,3.7,-1.7,Dropout_Enrolled
1,44,1,9085,1,39,140,1,Secondary,Secondary,140,1,0,0,1,0,0,20,13.9,-0.3,0.79,Dropout_Enrolled
4,39,1,8014,0,19,133.1,1,Basic,Basic,110,0,0,0,0,0,0,31,9.4,-0.8,-3.12,Dropout_Enrolled
2,39,1,9085,1,19,110,1,Basic,Basic,110,0,0,0,0,1,0,29,12.7,3.7,-1.7,Dropout_Enrolled
1,1,2,9853,1,1,124,1,Basic,Basic,118.1,1,0,0,0,0,0,18,9.4,-0.8,-3.12,Dropout_Enrolled
1,16,1,9085,1,1,150,1,Higher,Higher,153.5,1,0,0,1,0,0,19,13.9,-0.3,0.79,Dropout_Enrolled
1,39,1,9991,0,1,120,1,Basic,Secondary,123.2,0,0,0,1,0,0,27,10.8,1.4,1.74,Dropout_Enrolled
1,1,1,171,1,1,133.1,1,Basic,Basic,128.2,1,0,0,1,1,1,19,8.9,1.4,3.51,Dropout_Enrolled
1,1,5,9670,1,1,133.1,1,Secondary,Secondary,133,1,0,0,1,0,0,19,7.6,2.6,0.32,Dropout_Enrolled
1,1,4,9500,1,1,118,1,Basic,Basic,110,1,0,0,1,0,0,19,11.1,0.6,2.02,Dropout_Enrolled
1,42,1,9853,1,1,120,1,Secondary,Basic,111.3,0,0,0,1,0,0,24,16.2,0.3,-0.92,Dropout_Enrolled
1,39,1,9991,0,1,130,1,Basic,Basic,120,0,0,0,1,0,0,27,9.4,-0.8,-3.12,Dropout_Enrolled
2,39,1,9670,1,1,130,1,Basic,Basic,162.3,0,0,0,1,1,0,36,13.9,-0.3,0.79,Dropout_Enrolled
1,7,1,9085,1,3,150,1,Basic,Basic,140,0,0,0,1,1,0,24,7.6,2.6,0.32,Dropout_Enrolled
1,1,6,9500,1,1,126,1,Secondary,Basic,121.8,1,0,0,1,0,0,19,12.4,0.5,1.79,Dropout_Enrolled
1,17,1,9130,1,1,117,1,Basic,Basic,113.5,1,0,0,1,0,0,19,8.9,1.4,3.51,Dropout_Enrolled
1,1,6,9773,1,1,145,1,Secondary,Basic,131,1,0,0,1,0,1,18,7.6,2.6,0.32,Dropout_Enrolled
1,39,1,9238,1,1,140,1,Unknown,Unknown,114,1,0,0,0,0,0,28,9.4,-0.8,-3.12,Dropout_Enrolled
1,17,1,9991,0,1,120,1,Basic,Higher,116.9,1,0,1,0,0,0,26,10.8,1.4,1.74,Dropout_Enrolled
2,43,1,9991,0,2,120,1,Basic,Basic,120,0,0,0,1,0,0,36,9.4,-0.8,-3.12,Dropout_Enrolled
1,42,1,9119,1,1,140,1,Basic,Basic,120,0,0,1,0,1,0,31,12.7,3.7,-1.7,Dropout_Enrolled
1,1,1,9853,1,1,163,1,Basic,Secondary,146.6,1,0,1,1,0,0,18,9.4,-0.8,-3.12,Dropout_Enrolled
1,39,1,9003,1,1,133.1,1,Basic,Basic,130,0,0,1,1,0,1,30,11.1,0.6,2.02,Dropout_Enrolled
1,43,2,9119,1,1,115,1,Basic,Basic,112.2,1,0,1,1,1,0,18,15.5,2.8,-4.06,Dropout_Enrolled
1,39,1,9085,1,19,133.1,1,Basic,Basic,140,0,0,1,0,0,0,24,16.2,0.3,-0.92,Dropout_Enrolled
2,43,1,9991,0,1,130,1,Basic,Basic,110,1,0,0,1,0,0,38,7.6,2.6,0.32,Dropout_Enrolled
1,17,1,9238,1,1,140,1,Secondary,Higher,124.6,1,0,1,0,1,0,20,8.9,1.4,3.51,Dropout_Enrolled
1,1,1,9500,1,1,168,1,Secondary,Secondary,161,1,0,0,1,1,0,18,16.2,0.3,-0.92,Dropout_Enrolled
1,17,1,9085,1,1,125,1,Secondary,Basic,118.4,1,0,0,1,0,0,21,9.4,-0.8,-3.12,Dropout_Enrolled
1,1,5,9147,1,1,132,1,Secondary,Secondary,127.8,1,0,0,0,1,0,18,11.1,0.6,2.02,Dropout_Enrolled
1,39,1,33,1,1,130,1,Basic,Basic,102.5,0,0,1,0,1,0,37,8.9,1.4,3.51,Dropout_Enrolled
1,1,1,9119,1,1,132,1,Secondary,Secondary,133.1,1,0,0,1,1,0,19,11.1,0.6,2.02,Dropout_Enrolled
1,1,4,9670,1,1,130,1,Secondary,Secondary,124.1,1,0,0,1,0,0,18,8.9,1.4,3.51,Dropout_Enrolled
1,39,1,9991,0,1,160,41,Basic,Basic,160,0,0,0,1,0,1,31,15.5,2.8,-4.06,Dropout_Enrolled
1,1,2,9119,1,1,140,1,Basic,Basic,125.7,1,0,0,1,1,0,18,9.4,-0.8,-3.12,Dropout_Enrolled
1,1,6,9773,1,1,133.1,1,Secondary,Basic,100,1,0,1,0,0,0,20,12.4,0.5,1.79,Dropout_Enrolled
1,17,2,9254,1,1,115,1,Basic,Basic,113.3,1,0,1,1,0,0,21,11.1,0.6,2.02,Dropout_Enrolled
1,1,2,9773,1,1,129,1,Basic,Basic,117.1,1,0,0,1,0,0,20,9.4,-0.8,-3.12,Dropout_Enrolled
1,39,1,9500,1,19,133.1,1,Basic,Basic,120,0,0,0,0,0,1,39,16.2,0.3,-0.92,Dropout_Enrolled
1,39,1,9500,1,1,133.1,1,Secondary,Basic,100,0,0,0,1,1,0,28,16.2,0.3,-0.92,Dropout_Enrolled
4,39,1,9991,0,1,133.1,1,Basic,Basic,138.7,0,0,0,1,0,0,31,10.8,1.4,1.74,Dropout_Enrolled
1,44,1,9119,1,39,130,1,Higher,Basic,130,0,0,0,1,1,0,20,12.4,0.5,1.79,Dropout_Enrolled
1,39,1,9003,1,19,133.1,1,Basic,Basic,130,0,0,0,1,0,0,44,11.1,0.6,2.02,Dropout_Enrolled
1,16,1,171,1,1,150,1,Basic,Basic,134.6,1,0,0,1,1,0,19,7.6,2.6,0.32,Dropout_Enrolled
1,39,1,9119,1,1,139,1,Basic,Basic,110.3,0,0,1,1,1,0,24,8.9,1.4,3.51,Dropout_Enrolled
1,43,4,9670,1,1,117,1,Higher,Higher,113.2,0,0,0,1,1,0,21,9.4,-0.8,-3.12,Dropout_Enrolled
1,39,1,9119,1,19,133.1,1,Basic,Basic,100.9,1,0,0,1,1,0,24,10.8,1.4,1.74,Dropout_Enrolled
1,1,5,9773,1,1,125,1,Basic,Higher,126.1,1,0,0,1,1,0,22,9.4,-0.8,-3.12,Dropout_Enrolled
1,7,1,9500,1,3,120,1,Basic,Basic,120,0,0,1,0,0,0,28,13.9,-0.3,0.79,Dropout_Enrolled
1,17,6,9147,1,1,120,1,Basic,Basic,115.5,1,0,1,0,1,0,19,8.9,1.4,3.51,Dropout_Enrolled
1,43,3,9147,1,1,127,21,Higher,Basic,117.9,1,0,0,1,0,0,22,7.6,2.6,0.32,Dropout_Enrolled
1,1,1,171,1,1,138,1,Basic,Basic,130.7,1,0,0,1,0,0,18,13.9,-0.3,0.79,Dropout_Enrolled
2,7,1,9254,1,2,100,1,Basic,Basic,100,0,0,0,0,0,0,37,10.8,1.4,1.74,Dropout_Enrolled
1,1,1,9254,1,1,115,1,Basic,Secondary,113.6,0,0,0,1,1,0,23,11.1,0.6,2.02,Dropout_Enrolled
1,1,1,9147,1,1,130,1,Basic,Basic,118.8,0,0,1,1,1,1,22,15.5,2.8,-4.06,Dropout_Enrolled
1,17,1,9130,1,1,132,1,Higher,Secondary,127.8,0,0,0,1,1,0,18,11.1,0.6,2.02,Dropout_Enrolled
1,1,1,9853,1,1,133.1,1,Basic,Basic,97,1,0,0,1,0,0,23,12.7,3.7,-1.7,Dropout_Enrolled
1,7,1,9147,1,3,130,1,Basic,Basic,130,0,0,0,1,0,0,25,12.7,3.7,-1.7,Dropout_Enrolled
1,17,1,9238,1,1,126,1,Basic,Basic,116.9,1,0,0,1,0,0,21,12.7,3.7,-1.7,Dropout_Enrolled
1,44,1,9130,1,39,140,1,Secondary,Basic,140,0,0,0,1,1,0,20,13.9,-0.3,0.79,Dropout_Enrolled
1,1,1,9147,1,1,116,1,Basic,Basic,127.9,0,0,1,0,0,1,20,9.4,-0.8,-3.12,Dropout_Enrolled
1,39,1,9130,1,1,133.1,1,Secondary,Secondary,120,1,0,1,0,1,0,41,12.7,3.7,-1.7,Dropout_Enrolled
2,39,1,9238,1,19,133.1,1,Basic,Basic,130,1,0,0,1,0,0,31,9.4,-0.8,-3.12,Dropout_Enrolled
2,39,1,9853,1,1,110,1,Basic,Basic,95.5,0,0,1,0,0,0,32,10.8,1.4,1.74,Dropout_Enrolled
1,39,1,9991,0,40,130,1,Basic,Secondary,152,1,0,0,1,0,0,27,8.9,1.4,3.51,Dropout_Enrolled
1,1,2,9254,1,1,112,1,Basic,Basic,106.1,1,0,0,0,0,0,20,11.1,0.6,2.02,Dropout_Enrolled
1,1,1,9670,1,1,143,1,Higher,Basic,144.1,1,0,0,1,0,0,19,10.8,1.4,1.74,Dropout_Enrolled
1,1,1,9238,1,1,108,1,Secondary,Basic,105.9,0,0,0,1,0,1,20,11.1,0.6,2.02,Dropout_Enrolled
2,39,1,9853,1,12,133.1,1,Basic,Basic,103,0,0,0,1,0,0,41,16.2,0.3,-0.92,Dropout_Enrolled
1,7,1,9991,0,40,120,1,Secondary,Basic,120,0,0,0,1,0,0,24,12.4,0.5,1.79,Dropout_Enrolled
1,1,1,171,1,1,115,1,Basic,Basic,129,1,0,1,0,0,1,23,9.4,-0.8,-3.12,Dropout_Enrolled
2,1,1,8014,0,1,121,1,Basic,Basic,114.4,1,0,0,1,0,0,45,7.6,2.6,0.32,Dropout_Enrolled
2,39,1,9003,1,19,133.1,1,Basic,Basic,120,0,0,1,1,0,0,37,16.2,0.3,-0.92,Dropout_Enrolled
2,39,1,9119,1,1,120,1,Unknown,Unknown,140,1,0,0,1,1,0,33,9.4,-0.8,-3.12,Dropout_Enrolled
1,1,4,9119,1,1,126,1,Higher,Basic,123.6,1,0,0,1,1,0,18,8.9,1.4,3.51,Dropout_Enrolled
1,51,1,9070,1,12,133.1,1,Basic,Basic,106.6,0,0,1,1,0,0,31,8.9,1.4,3.51,Dropout_Enrolled
2,43,1,9991,0,1,140,1,Basic,Basic,107.8,0,0,0,1,0,0,33,7.6,2.6,0.32,Dropout_Enrolled
1,1,2,9670,1,1,117,1,Basic,Basic,111.8,0,0,0,1,0,0,22,7.6,2.6,0.32,Dropout_Enrolled
1,39,1,9147,1,12,133.1,1,Basic,Basic,118.2,0,0,0,1,0,0,31,10.8,1.4,1.74,Dropout_Enrolled
1,15,1,9085,1,1,133.1,41,Basic,Basic,109.6,0,0,0,1,0,0,18,11.1,0.6,2.02,Dropout_Enrolled
1,39,1,9991,0,1,133.1,1,Secondary,Secondary,127.7,0,0,0,1,0,0,25,13.9,-0.3,0.79,Dropout_Enrolled
1,44,1,171,1,39,110,1,Secondary,Secondary,114.2,0,0,0,1,1,0,19,12.4,0.5,1.79,Dropout_Enrolled
1,17,1,171,1,1,129,1,Secondary,Secondary,124.8,1,0,0,1,1,0,18,12.7,3.7,-1.7,Dropout_Enrolled
1,1,1,9500,1,1,137,1,Secondary,Basic,125.3,0,0,0,1,1,0,19,7.6,2.6,0.32,Dropout_Enrolled
1,39,1,8014,0,1,133.1,1,Basic,Basic,120,0,0,1,0,0,0,31,11.1,0.6,2.02,Dropout_Enrolled
1,1,2,171,1,1,140,1,Secondary,Higher,138.3,1,0,0,1,0,0,18,12.4,0.5,1.79,Dropout_Enrolled
1,17,6,9147,1,1,121,1,Basic,Basic,123.8,0,0,0,1,0,1,19,12.7,3.7,-1.7,Dropout_Enrolled
1,44,1,9254,1,39,130,1,Secondary,Secondary,130,1,0,1,1,1,0,23,8.9,1.4,3.51,Dropout_Enrolled
1,7,1,9556,1,43,160,1,Basic,Basic,160,0,0,0,1,1,0,36,11.1,0.6,2.02,Dropout_Enrolled
1,44,1,9085,1,39,140,1,Secondary,Basic,140,1,0,0,1,0,0,20,16.2,0.3,-0.92,Dropout_Enrolled
1,39,1,9991,0,1,130,1,Higher,Secondary,120.5,0,0,0,1,1,0,28,12.7,3.7,-1.7,Dropout_Enrolled
1,43,1,9670,1,1,142,1,Basic,Secondary,138.5,1,0,0,1,1,0,18,13.9,-0.3,0.79,Dropout_Enrolled
1,17,5,9085,1,1,130,1,Basic,Basic,115.8,0,0,0,0,0,0,18,12.7,3.7,-1.7,Dropout_Enrolled
1,17,1,9254,1,1,136,1,Secondary,Higher,128.7,1,0,0,1,0,0,20,13.9,-0.3,0.79,Dropout_Enrolled
1,43,1,9130,1,1,127,1,Basic,Basic,120.7,1,0,1,1,0,0,18,12.7,3.7,-1.7,Dropout_Enrolled
1,17,6,9147,1,1,118,1,Basic,Secondary,117,1,0,0,0,1,0,23,9.4,-0.8,-3.12,Dropout_Enrolled
1,1,1,9238,1,1,133,1,Basic,Basic,131.3,1,0,1,1,0,0,18,8.9,1.4,3.51,Dropout_Enrolled
1,17,2,9773,1,1,124,1,Secondary,Secondary,127.9,1,0,0,1,1,0,20,9.4,-0.8,-3.12,Dropout_Enrolled
1,17,1,9003,1,1,126,1,Basic,Higher,116.9,0,0,0,1,1,0,19,13.9,-0.3,0.79,Dropout_Enrolled
1,1,1,9238,1,1,135,1,Basic,Basic,121,0,0,0,1,0,0,20,9.4,-0.8,-3.12,Dropout_Enrolled
1,1,5,9147,1,1,125,1,Basic,Basic,122.2,1,0,0,1,0,0,18,7.6,2.6,0.32,Dropout_Enrolled
1,1,1,9254,1,1,121,1,Secondary,Secondary,111.9,1,0,0,0,1,0,20,10.8,1.4,1.74,Dropout_Enrolled
1,39,1,9003,1,1,123,1,Basic,Basic,110,0,0,1,0,0,0,48,11.1,0.6,2.02,Dropout_Enrolled
1,17,2,9853,1,1,150,1,Basic,Basic,132.5,1,0,0,1,0,0,22,10.8,1.4,1.74,Dropout_Enrolled
1,1,1,8014,0,1,126,1,Unknown,Unknown,142.4,0,0,0,1,0,0,32,7.6,2.6,0.32,Dropout_Enrolled
4,39,1,9991,0,1,130,1,Basic,Basic,148,0,0,0,1,0,1,31,13.9,-0.3,0.79,Dropout_Enrolled
1,17,1,9670,1,1,133.1,1,Unknown,Higher,130.6,1,0,1,0,1,0,23,7.6,2.6,0.32,Dropout_Enrolled
1,1,1,171,1,1,152,1,Secondary,Basic,160.4,1,0,0,0,0,0,19,7.6,2.6,0.32,Dropout_Enrolled
1,17,1,9853,1,1,158,1,Basic,Basic,140.2,1,0,0,1,0,0,18,10.8,1.4,1.74,Dropout_Enrolled
1,39,1,9500,1,1,140,1,Basic,Basic,132.8,0,0,0,1,1,0,35,12.4,0.5,1.79,Dropout_Enrolled
1,39,1,9991,0,1,133.1,1,Basic,Basic,143.2,0,0,0,1,1,0,35,11.1,0.6,2.02,Dropout_Enrolled
1,1,1,9070,1,1,124,1,Basic,Basic,113.9,1,0,0,1,1,0,18,12.4,0.5,1.79,Dropout_Enrolled
1,17,1,9147,1,1,140,1,Basic,Basic,132.3,1,0,0,1,0,0,20,7.6,2.6,0.32,Dropout_Enrolled
1,51,1,9070,1,1,122,1,Basic,Basic,128.8,1,0,0,1,1,0,21,8.9,1.4,3.51,Dropout_Enrolled
1,1,1,171,1,1,138,1,Basic,Basic,124,1,0,0,0,0,0,19,10.8,1.4,1.74,Dropout_Enrolled
2,43,1,9085,1,1,160,1,Basic,Basic,120,0,0,0,1,1,0,21,9.4,-0.8,-3.12,Dropout_Enrolled
1,1,1,9670,1,1,131,1,Basic,Basic,127.2,0,0,0,1,0,1,18,9.4,-0.8,-3.12,Dropout_Enrolled
2,39,1,9147,1,1,140,1,Basic,Basic,130,1,0,0,0,0,0,39,9.4,-0.8,-3.12,Dropout_Enrolled
1,17,2,9773,1,1,120,1,Secondary,Secondary,127,1,0,0,0,1,0,18,8.9,1.4,3.51,Dropout_Enrolled
1,1,1,9147,1,1,120,1,Secondary,Basic,111.3,0,0,0,1,1,1,18,15.5,2.8,-4.06,Dropout_Enrolled
1,17,1,9773,1,1,117,1,Basic,Basic,120.5,1,0,0,1,1,0,19,9.4,-0.8,-3.12,Dropout_Enrolled
1,1,1,9119,1,1,146,1,Basic,Basic,148.5,1,0,0,1,1,0,18,10.8,1.4,1.74,Dropout_Enrolled
1,39,1,8014,0,1,140,1,Basic,Basic,115.5,0,0,0,0,1,0,33,10.8,1.4,1.74,Dropout_Enrolled
1,39,1,9991,0,1,110,1,Basic,Basic,133.9,0,0,0,1,0,0,30,10.8,1.4,1.74,Dropout_Enrolled
1,44,1,9085,1,39,130,1,Higher,Secondary,130,1,0,0,1,0,0,21,12.4,0.5,1.79,Dropout_Enrolled
3,1,2,9085,1,1,135,1,Basic,Secondary,129.4,1,0,0,1,0,0,21,10.8,1.4,1.74,Dropout_Enrolled
1,39,1,9670,1,1,120,1,Secondary,Basic,140.4,0,0,0,1,0,0,31,13.9,-0.3,0.79,Dropout_Enrolled
1,51,1,9119,1,1,129,1,Higher,Basic,121.6,1,0,0,1,1,0,19,7.6,2.6,0.32,Dropout_Enrolled
2,39,1,9085,1,19,133.1,1,Basic,Basic,128.2,0,0,0,1,0,0,31,12.7,3.7,-1.7,Dropout_Enrolled
1,17,5,9147,1,1,127,1,Secondary,Basic,124.6,1,0,0,1,0,1,19,11.1,0.6,2.02,Dropout_Enrolled
1,44,1,9003,1,39,140,1,Basic,Secondary,140,1,0,1,1,1,0,26,8.9,1.4,3.51,Dropout_Enrolled
1,1,1,9070,1,1,132,1,Higher,Secondary,136.6,1,0,0,1,0,0,18,13.9,-0.3,0.79,Dropout_Enrolled
1,17,5,9500,1,1,137,1,Secondary,Secondary,131.1,1,0,0,1,0,0,18,13.9,-0.3,0.79,Dropout_Enrolled
1,17,1,9147,1,1,96,1,Basic,Basic,96,1,0,0,1,0,0,19,16.2,0.3,-0.92,Dropout_Enrolled
2,1,1,9147,1,1,137,1,Basic,Basic,124.4,0,0,0,1,0,0,19,10.8,1.4,1.74,Dropout_Enrolled
1,18,4,9500,1,1,137,1,Higher,Secondary,126.7,1,0,0,1,0,0,18,13.9,-0.3,0.79,Dropout_Enrolled
1,18,6,8014,0,1,134,1,Higher,Basic,120.7,1,0,0,1,0,0,23,13.9,-0.3,0.79,Dropout_Enrolled
1,43,1,9853,1,1,110,1,Basic,Basic,107.7,0,0,1,0,0,0,28,10.8,1.4,1.74,Dropout_Enrolled
2,39,1,8014,0,9,133.1,1,Basic,Basic,100,1,0,0,1,0,0,37,9.4,-0.8,-3.12,Dropout_Enrolled
4,39,1,9500,1,1,133.1,1,Basic,Basic,130,0,0,1,1,0,0,38,16.2,0.3,-0.92,Dropout_Enrolled
1,17,3,9147,1,1,137,1,Secondary,Secondary,124.4,1,0,0,1,0,0,18,11.1,0.6,2.02,Dropout_Enrolled
1,1,1,9147,1,1,118,1,Secondary,Secondary,111,0,0,0,0,1,0,21,10.8,1.4,1.74,Dropout_Enrolled
1,1,1,171,1,1,124,1,Basic,Secondary,121.2,1,0,0,1,1,0,20,10.8,1.4,1.74,Dropout_Enrolled
1,1,1,171,1,1,131,1,Secondary,Secondary,127.2,1,0,1,1,1,0,23,11.1,0.6,2.02,Dropout_Enrolled
2,39,1,9991,0,1,120,1,Basic,Basic,133.2,1,0,0,1,1,0,32,7.6,2.6,0.32,Dropout_Enrolled
1,39,1,9085,1,1,130,1,Basic,Basic,130,1,0,0,1,0,0,28,12.7,3.7,-1.7,Dropout_Enrolled
1,1,4,9853,1,1,134,1,Basic,Secondary,127.4,1,0,0,1,0,0,18,10.8,1.4,1.74,Dropout_Enrolled
1,39,1,9991,0,1,110,1,Basic,Basic,139,0,0,0,1,1,0,40,12.7,3.7,-1.7,Dropout_Enrolled
1,1,1,9147,1,1,124,1,Basic,Basic,128.6,1,0,0,1,0,0,20,7.6,2.6,0.32,Dropout_Enrolled
1,51,1,8014,0,1,120,1,Secondary,Secondary,128.5,0,0,1,0,1,0,26,12.4,0.5,1.79,Dropout_Enrolled
1,39,1,9003,1,1,130,1,Secondary,Secondary,140,0,0,0,0,1,0,25,13.9,-0.3,0.79,Dropout_Enrolled
2,43,1,9991,0,1,130,1,Basic,Basic,128.2,0,0,0,1,0,0,34,9.4,-0.8,-3.12,Dropout_Enrolled
2,39,1,9085,1,9,133.1,1,Secondary,Secondary,120,1,0,0,0,1,0,29,9.4,-0.8,-3.12,Dropout_Enrolled
1,17,2,9670,1,1,129,1,Secondary,Basic,119.2,1,0,0,1,0,0,21,8.9,1.4,3.51,Dropout_Enrolled
1,10,1,9773,1,1,151,22,Basic,Basic,151,1,0,0,1,0,0,18,9.4,-0.8,-3.12,Dropout_Enrolled
1,17,1,9003,1,1,119,1,Basic,Basic,113.2,0,0,1,1,0,0,20,11.1,0.6,2.02,Dropout_Enrolled
1,43,1,9147,1,1,130,1,Basic,Basic,130.8,0,0,0,1,1,0,22,16.2,0.3,-0.92,Dropout_Enrolled
1,1,1,9254,1,1,123,1,Basic,Basic,114.3,0,0,0,1,0,0,19,11.1,0.6,2.02,Dropout_Enrolled
1,43,1,9070,1,1,100,1,Basic,Basic,108,1,0,0,1,1,0,34,7.6,2.6,0.32,Dropout_Enrolled
1,1,3,9500,1,1,139,1,Higher,Secondary,126,1,0,0,1,1,0,18,10.8,1.4,1.74,Dropout_Enrolled
1,1,5,9670,1,1,116,1,Basic,Basic,119.5,1,0,0,0,0,0,18,8.9,1.4,3.51,Dropout_Enrolled
1,17,1,9670,1,1,127,1,Secondary,Basic,125.6,0,0,1,1,0,1,18,15.5,2.8,-4.06,Dropout_Enrolled
1,1,2,9147,1,1,120,1,Secondary,Basic,113.4,1,0,0,1,1,1,19,11.1,0.6,2.02,Dropout_Enrolled
1,1,3,171,1,1,115,1,Secondary,Secondary,108.7,1,0,0,0,0,0,21,9.4,-0.8,-3.12,Dropout_Enrolled
1,39,1,9991,0,19,133.1,1,Higher,Secondary,100,0,0,0,1,1,0,24,16.2,0.3,-0.92,Dropout_Enrolled
1,18,1,9130,1,1,146,1,Higher,Higher,137.8,0,0,0,1,1,0,18,13.9,-0.3,0.79,Dropout_Enrolled
1,1,3,9500,1,1,122,1,Higher,Secondary,114.8,1,0,0,1,0,1,19,12.4,0.5,1.79,Dropout_Enrolled
1,43,1,9500,1,1,120,1,Higher,Higher,120.6,0,0,0,1,1,0,18,16.2,0.3,-0.92,Dropout_Enrolled
4,39,1,9500,1,19,133.1,1,Basic,Basic,100,0,0,0,0,0,0,40,9.4,-0.8,-3.12,Dropout_Enrolled
1,43,1,9500,1,1,140,1,Basic,Basic,125.7,1,0,0,1,1,1,19,7.6,2.6,0.32,Dropout_Enrolled
5,39,1,9147,1,1,180,1,Secondary,Secondary,140.5,0,0,1,0,0,0,24,13.9,-0.3,0.79,Dropout_Enrolled
1,43,1,9991,0,2,110,1,Basic,Basic,112.9,0,0,0,1,0,0,38,9.4,-0.8,-3.12,Dropout_Enrolled
1,17,3,9500,1,1,142,1,Higher,Higher,132.9,1,0,0,1,1,0,18,12.4,0.5,1.79,Dropout_Enrolled
1,17,2,9556,1,1,133.1,1,Basic,Basic,106,1,0,0,1,0,0,19,8.9,1.4,3.51,Dropout_Enrolled
1,43,2,9670,1,1,129,1,Higher,Higher,122.4,1,0,0,1,0,0,19,12.7,3.7,-1.7,Dropout_Enrolled
2,39,1,9991,0,19,133.1,1,Basic,Basic,120,0,0,0,1,1,0,39,12.7,3.7,-1.7,Dropout_Enrolled
2,39,1,9773,1,1,100,1,Basic,Basic,133,0,0,0,1,1,0,47,12.7,3.7,-1.7,Dropout_Enrolled
1,17,2,9254,1,1,135,1,Basic,Basic,135,1,0,0,1,1,0,20,7.6,2.6,0.32,Dropout_Enrolled
1,43,1,8014,0,6,133.1,1,Unknown,Unknown,100,0,0,1,1,0,0,29,7.6,2.6,0.32,Dropout_Enrolled
4,39,2,9556,1,1,133.1,1,Basic,Basic,101.5,1,0,0,1,0,0,24,10.8,1.4,1.74,Dropout_Enrolled
1,1,1,9670,1,1,133,1,Basic,Basic,128.1,1,0,0,1,1,1,18,13.9,-0.3,0.79,Dropout_Enrolled
4,39,1,9670,1,1,110,1,Basic,Basic,107.2,0,0,0,1,1,0,42,12.7,3.7,-1.7,Dropout_Enrolled
1,39,1,171,1,1,140,1,Basic,Basic,100.8,0,1,0,1,0,0,26,16.2,0.3,-0.92,Dropout_Enrolled
1,39,1,9991,0,1,133.1,1,Higher,Basic,121.7,0,0,0,1,1,0,31,13.9,-0.3,0.79,Dropout_Enrolled
2,39,1,9991,0,12,133.1,1,Basic,Unknown,110.7,1,0,0,1,0,0,50,7.6,2.6,0.32,Dropout_Enrolled
1,39,1,9254,1,19,133.1,1,Basic,Basic,100,0,0,0,1,1,0,27,16.2,0.3,-0.92,Dropout_Enrolled
1,18,4,9254,1,1,119,1,Basic,Basic,113.1,1,0,0,0,1,0,22,15.5,2.8,-4.06,Dropout_Enrolled
2,43,1,9991,0,2,120,1,Basic,Basic,120,0,0,0,0,0,0,38,9.4,-0.8,-3.12,Dropout_Enrolled
1,43,1,9500,1,1,120,1,Basic,Basic,120,1,0,0,1,0,0,26,7.6,2.6,0.32,Dropout_Enrolled
1,1,1,9147,1,1,135,1,Basic,Basic,126.3,0,0,0,1,1,0,18,8.9,1.4,3.51,Dropout_Enrolled
1,1,1,9853,1,1,125,1,Basic,Basic,125.4,0,0,1,0,0,0,19,16.2,0.3,-0.92,Dropout_Enrolled
1,16,1,171,1,1,145,1,Higher,Higher,155,1,0,0,1,0,0,24,12.4,0.5,1.79,Dropout_Enrolled
1,1,1,9147,1,1,151,1,Basic,Secondary,138.4,0,0,0,1,0,0,18,10.8,1.4,1.74,Dropout_Enrolled
1,7,1,8014,0,4,120,1,Higher,Higher,120,0,0,0,1,0,0,18,15.5,2.8,-4.06,Dropout_Enrolled
1,43,1,9147,1,1,129,1,Basic,Secondary,112,0,0,0,1,1,0,22,12.7,3.7,-1.7,Dropout_Enrolled
1,1,1,9670,1,1,133.1,1,Higher,Secondary,95,0,0,0,1,1,0,19,15.5,2.8,-4.06,Dropout_Enrolled
1,44,1,9130,1,39,130,1,Basic,Basic,150,0,0,0,1,1,0,24,11.1,0.6,2.02,Dropout_Enrolled
1,7,1,9500,1,3,120,1,Basic,Higher,120,1,0,0,1,0,0,29,12.7,3.7,-1.7,Dropout_Enrolled
1,1,3,9500,1,1,131,1,Basic,Basic,118,1,0,0,1,0,1,18,12.7,3.7,-1.7,Dropout_Enrolled
1,53,1,9670,1,42,140,1,Basic,Basic,140,1,0,1,1,0,0,21,8.9,1.4,3.51,Dropout_Enrolled
1,17,1,9085,1,1,137,1,Secondary,Secondary,134.6,1,0,0,1,1,0,22,16.2,0.3,-0.92,Dropout_Enrolled
1,53,1,9085,1,42,140,1,Basic,Basic,144.9,1,0,1,0,0,0,23,8.9,1.4,3.51,Dropout_Enrolled
1,39,1,9003,1,1,140,41,Secondary,Secondary,100,0,0,1,0,0,0,29,15.5,2.8,-4.06,Dropout_Enrolled
1,1,1,9238,1,1,135,1,Basic,Secondary,121,0,0,0,1,0,0,21,7.6,2.6,0.32,Dropout_Enrolled
2,39,1,9991,0,1,100,1,Basic,Basic,125.3,1,0,0,1,1,0,41,7.6,2.6,0.32,Dropout_Enrolled
1,39,1,9119,1,10,133.1,1,Unknown,Basic,128.8,1,0,0,1,1,0,43,7.6,2.6,0.32,Dropout_Enrolled
1,1,5,9254,1,1,120,1,Higher,Basic,114.8,1,0,0,0,1,0,19,8.9,1.4,3.51,Dropout_Enrolled
1,1,3,9773,1,1,175,1,Higher,Basic,157.5,1,0,0,1,0,0,19,10.8,1.4,1.74,Dropout_Enrolled
1,1,1,9238,1,1,151,1,Basic,Basic,157,1,0,1,1,0,1,18,7.6,2.6,0.32,Dropout_Enrolled
1,17,5,9254,1,1,113,1,Secondary,Secondary,110.2,1,0,0,1,1,0,21,9.4,-0.8,-3.12,Dropout_Enrolled
1,17,5,9773,1,1,139,1,Basic,Secondary,123.6,1,0,0,1,1,0,18,7.6,2.6,0.32,Dropout_Enrolled
1,43,1,9991,0,1,120,1,Basic,Basic,115.8,0,0,1,0,1,0,28,12.7,3.7,-1.7,Dropout_Enrolled
1,1,1,9254,1,1,140,1,Basic,Basic,130,0,0,0,1,1,0,21,12.7,3.7,-1.7,Dropout_Enrolled
1,39,1,9500,1,1,133.1,1,Basic,Basic,124.5,0,0,0,0,1,0,38,11.1,0.6,2.02,Dropout_Enrolled
1,1,2,9500,1,1,126,1,Basic,Secondary,118.7,1,0,0,1,0,0,19,13.9,-0.3,0.79,Dropout_Enrolled
1,1,2,9500,1,1,131,1,Secondary,Basic,126.1,1,0,0,1,0,1,19,11.1,0.6,2.02,Dropout_Enrolled
1,1,1,171,1,1,188,1,Higher,Higher,178.3,1,0,0,1,0,0,18,15.5,2.8,-4.06,Dropout_Enrolled
1,39,1,9556,1,19,133.1,1,Basic,Secondary,105,0,0,0,1,1,0,25,15.5,2.8,-4.06,Dropout_Enrolled
1,39,1,9119,1,19,133.1,1,Secondary,Basic,100,0,0,0,1,1,0,25,13.9,-0.3,0.79,Dropout_Enrolled
1,18,4,9085,1,1,170,1,Secondary,Secondary,166.6,0,0,1,0,0,1,20,12.7,3.7,-1.7,Dropout_Enrolled
1,1,1,9130,1,1,152,1,Basic,Basic,135.6,1,0,0,1,1,0,18,12.7,3.7,-1.7,Dropout_Enrolled
1,1,2,9147,1,1,113,1,Basic,Basic,107.4,1,0,0,1,1,0,20,12.4,0.5,1.79,Dropout_Enrolled
1,1,2,171,1,1,127,1,Higher,Secondary,133.5,1,0,0,1,1,0,17,15.5,2.8,-4.06,Dropout_Enrolled
1,17,5,9670,1,1,125,1,Basic,Basic,118.4,1,0,0,1,0,1,19,7.6,2.6,0.32,Dropout_Enrolled
1,1,1,9147,1,1,133.1,1,Basic,Secondary,100,0,0,0,1,0,0,21,16.2,0.3,-0.92,Dropout_Enrolled
1,43,1,171,1,1,144,1,Basic,Basic,121.6,0,0,0,1,1,0,22,13.9,-0.3,0.79,Dropout_Enrolled
1,7,1,9147,1,3,150,1,Higher,Secondary,150,0,0,0,1,0,0,26,9.4,-0.8,-3.12,Dropout_Enrolled
1,17,1,9853,1,1,128,1,Basic,Basic,128.4,1,0,0,1,0,1,20,9.4,-0.8,-3.12,Dropout_Enrolled
4,39,1,9500,1,19,133.1,1,Basic,Basic,117.8,0,0,1,0,0,0,46,11.1,0.6,2.02,Dropout_Enrolled
1,17,1,9853,1,1,140,1,Basic,Basic,122.3,1,0,0,1,0,0,19,12.7,3.7,-1.7,Dropout_Enrolled
1,1,3,9119,1,1,117,1,Secondary,Secondary,111.1,0,0,0,1,1,1,19,11.1,0.6,2.02,Dropout_Enrolled
1,1,3,9085,1,1,131,1,Basic,Basic,136.3,1,0,1,0,0,0,18,7.6,2.6,0.32,Dropout_Enrolled
1,17,1,9670,1,1,133.1,1,Secondary,Basic,96,1,0,0,1,0,1,25,15.5,2.8,-4.06,Dropout_Enrolled
1,17,4,171,1,1,133.1,1,Basic,Basic,117,1,0,0,1,1,0,21,10.8,1.4,1.74,Dropout_Enrolled
2,39,1,9991,0,19,133.1,1,Basic,Secondary,121.7,0,0,1,0,0,0,31,16.2,0.3,-0.92,Dropout_Enrolled
1,43,1,9119,1,1,140,1,Basic,Basic,146.5,0,0,0,1,1,0,39,13.9,-0.3,0.79,Dropout_Enrolled
1,44,1,9003,1,1,140,1,Secondary,Secondary,140,0,0,0,1,1,0,20,16.2,0.3,-0.92,Dropout_Enrolled
2,39,1,9991,0,1,140,1,Basic,Basic,130,0,0,0,1,0,0,34,9.4,-0.8,-3.12,Dropout_Enrolled
1,51,1,9070,1,1,117,1,Higher,Secondary,120,1,0,0,1,0,0,21,8.9,1.4,3.51,Dropout_Enrolled
1,7,1,9556,1,3,130,1,Secondary,Basic,130,0,0,0,0,1,0,23,10.8,1.4,1.74,Dropout_Enrolled
1,39,1,9991,0,1,139,1,Secondary,Secondary,140.7,0,0,0,1,1,0,25,12.4,0.5,1.79,Dropout_Enrolled
1,1,3,9500,1,1,138,1,Basic,Basic,124.9,1,0,0,1,0,1,18,13.9,-0.3,0.79,Dropout_Enrolled
1,53,1,9085,1,42,150,1,Secondary,Secondary,150,1,0,0,1,1,1,22,8.9,1.4,3.51,Dropout_Enrolled
1,17,4,9119,1,1,139,1,Basic,Basic,133.1,1,0,0,1,1,0,18,7.6,2.6,0.32,Dropout_Enrolled
2,39,1,9991,0,1,133.1,1,Basic,Basic,126.5,0,0,0,1,0,0,27,7.6,2.6,0.32,Dropout_Enrolled
6,39,2,9147,1,1,133.1,1,Basic,Basic,110,0,0,0,1,0,0,47,9.4,-0.8,-3.12,Dropout_Enrolled
4,39,1,9130,1,1,133.1,1,Higher,Secondary,110,1,0,0,1,0,1,30,11.1,0.6,2.02,Dropout_Enrolled
1,39,1,8014,0,1,120,1,Basic,Basic,106.8,0,0,0,1,0,0,49,13.9,-0.3,0.79,Dropout_Enrolled
1,17,1,9254,1,1,133,1,Basic,Secondary,137.2,0,0,0,1,1,1,20,10.8,1.4,1.74,Dropout_Enrolled
1,17,2,9119,1,1,133.1,1,Secondary,Higher,117,1,0,0,1,1,0,21,12.4,0.5,1.79,Dropout_Enrolled
4,39,1,9254,1,1,140,1,Basic,Basic,112,0,0,1,1,0,0,45,12.7,3.7,-1.7,Dropout_Enrolled
1,18,4,9254,1,1,106,1,Basic,Basic,106,1,0,0,1,1,1,21,9.4,-0.8,-3.12,Dropout_Enrolled
1,17,5,9500,1,1,148,1,Secondary,Basic,130.2,1,0,0,1,0,0,19,12.4,0.5,1.79,Dropout_Enrolled
1,44,1,9085,1,39,150,1,Basic,Basic,150,1,0,0,1,0,0,23,8.9,1.4,3.51,Dropout_Enrolled
1,1,1,9670,1,1,128,1,Secondary,Secondary,130.8,1,0,0,1,0,0,20,7.6,2.6,0.32,Dropout_Enrolled
1,1,1,9147,1,1,140,1,Basic,Basic,120,1,0,0,1,1,0,21,12.7,3.7,-1.7,Dropout_Enrolled
1,1,1,9085,1,1,113,1,Secondary,Secondary,106.7,1,0,0,1,0,0,20,15.5,2.8,-4.06,Dropout_Enrolled
1,1,1,171,1,1,118,1,Basic,Basic,110,0,0,0,1,1,0,19,13.9,-0.3,0.79,Dropout_Enrolled
1,39,1,9500,1,1,133.1,1,Secondary,Basic,121.7,0,0,0,1,0,1,27,12.4,0.5,1.79,Dropout_Enrolled
4,39,1,9238,1,19,133.1,1,Basic,Basic,103.5,0,0,0,0,0,0,44,13.9,-0.3,0.79,Dropout_Enrolled
2,39,1,9003,1,1,120,1,Higher,Higher,100,0,0,0,1,1,0,30,15.5,2.8,-4.06,Dropout_Enrolled
1,39,1,9147,1,19,100,1,Basic,Basic,132,0,0,1,0,1,0,28,10.8,1.4,1.74,Dropout_Enrolled
1,1,1,9147,1,1,130,1,Basic,Basic,131.8,1,0,0,1,0,1,19,7.6,2.6,0.32,Dropout_Enrolled
1,39,1,9085,1,39,120,1,Basic,Basic,137.7,1,0,0,0,1,0,41,12.4,0.5,1.79,Dropout_Enrolled
1,1,2,9773,1,1,133,1,Higher,Secondary,130.2,0,0,0,1,1,0,19,8.9,1.4,3.51,Dropout_Enrolled
1,39,1,9003,1,4,160,1,Higher,Higher,180.4,0,0,1,1,1,0,24,12.4,0.5,1.79,Dropout_Enrolled
1,39,9,9991,0,1,120,1,Basic,Basic,144.8,0,0,0,1,1,0,28,10.8,1.4,1.74,Dropout_Enrolled
1,1,1,9500,1,1,124,1,Basic,Basic,117.5,1,0,0,1,1,0,19,9.4,-0.8,-3.12,Dropout_Enrolled
1,1,1,9147,1,1,112,1,Secondary,Secondary,106.1,0,0,0,1,0,0,20,9.4,-0.8,-3.12,Dropout_Enrolled
2,39,1,9147,1,1,133.1,1,Basic,Basic,140,0,0,0,0,0,0,35,9.4,-0.8,-3.12,Dropout_Enrolled
1,5,1,9085,1,1,150,1,Secondary,Secondary,139.4,0,0,0,1,0,0,18,7.6,2.6,0.32,Dropout_Enrolled
1,51,1,9147,1,1,116,1,Higher,Higher,115.2,0,0,1,1,1,0,32,8.9,1.4,3.51,Dropout_Enrolled
1,1,1,9119,1,1,121,1,Higher,Secondary,114,0,0,0,1,1,0,20,7.6,2.6,0.32,Dropout_Enrolled
1,1,1,9147,1,1,125,1,Secondary,Secondary,134.1,1,0,0,1,1,0,20,8.9,1.4,3.51,Dropout_Enrolled
1,1,4,9500,1,1,126,1,Basic,Basic,121.3,1,0,0,1,0,1,18,12.4,0.5,1.79,Dropout_Enrolled
4,39,2,9670,1,19,133.1,1,Basic,Secondary,103,0,0,0,0,1,0,34,10.8,1.4,1.74,Dropout_Enrolled
1,44,1,9003,1,39,140,1,Higher,Higher,120,1,0,0,1,1,0,22,12.4,0.5,1.79,Dropout_Enrolled
2,43,1,9991,0,1,134,1,Basic,Basic,113.7,0,0,0,1,0,0,32,9.4,-0.8,-3.12,Dropout_Enrolled
5,7,1,9130,1,3,160,1,Basic,Basic,160,0,0,0,0,0,0,27,10.8,1.4,1.74,Dropout_Enrolled
1,44,1,9070,1,39,120,1,Secondary,Basic,120,0,0,1,0,1,0,20,16.2,0.3,-0.92,Dropout_Enrolled
4,17,5,8014,0,1,100,1,Basic,Basic,107,0,0,0,1,0,0,38,10.8,1.4,1.74,Dropout_Enrolled
1,1,1,9085,1,1,138,1,Basic,Basic,131,1,0,0,1,0,0,18,9.4,-0.8,-3.12,Dropout_Enrolled
1,17,3,9147,1,1,118,1,Secondary,Basic,118,0,0,0,1,0,0,20,12.4,0.5,1.79,Dropout_Enrolled
1,1,3,9500,1,1,126,1,Secondary,Basic,120.1,1,0,0,1,0,0,19,12.4,0.5,1.79,Dropout_Enrolled
1,1,2,8014,0,1,96,1,Higher,Secondary,100,0,0,0,1,0,0,20,9.4,-0.8,-3.12,Dropout_Enrolled
1,1,1,9238,1,1,157,1,Higher,Basic,136.7,1,0,0,1,0,0,22,9.4,-0.8,-3.12,Dropout_Enrolled
1,39,1,9147,1,12,133.1,1,Secondary,Secondary,140,1,0,1,0,1,0,24,12.7,3.7,-1.7,Dropout_Enrolled
2,39,1,9991,0,1,110,1,Unknown,Unknown,114.6,1,0,0,1,0,0,46,7.6,2.6,0.32,Dropout_Enrolled
1,42,1,9119,1,1,120,1,Unknown,Unknown,128.2,1,0,0,1,1,0,35,9.4,-0.8,-3.12,Dropout_Enrolled
1,7,1,9119,1,4,180,1,Higher,Higher,180,0,0,1,1,1,0,30,13.9,-0.3,0.79,Dropout_Enrolled
2,39,1,9773,1,19,133.1,1,Basic,Basic,110,0,0,0,0,0,0,53,15.5,2.8,-4.06,Dropout_Enrolled
1,51,1,9119,1,1,140,1,Secondary,Basic,150,0,0,0,1,1,0,23,8.9,1.4,3.51,Dropout_Enrolled
1,44,1,9003,1,39,130,1,Secondary,Secondary,130,0,0,0,1,1,0,22,15.5,2.8,-4.06,Dropout_Enrolled
1,16,2,9147,1,1,132,1,Basic,Basic,122.6,1,0,0,1,0,1,20,10.8,1.4,1.74,Dropout_Enrolled
1,1,1,9500,1,1,140,1,Basic,Basic,129.9,0,0,0,1,0,0,19,16.2,0.3,-0.92,Dropout_Enrolled
1,17,1,9773,1,1,116,1,Basic,Secondary,115.7,1,0,1,0,0,0,19,12.4,0.5,1.79,Dropout_Enrolled
2,39,1,8014,0,12,133.1,1,Unknown,Unknown,135,0,0,0,1,0,0,51,7.6,2.6,0.32,Dropout_Enrolled
1,1,4,9773,1,1,137,1,Basic,Basic,134.2,1,0,0,1,0,0,18,10.8,1.4,1.74,Dropout_Enrolled
1,17,1,9119,1,1,125,1,Basic,Secondary,121.5,1,0,0,1,1,0,20,11.1,0.6,2.02,Dropout_Enrolled
1,17,1,9853,1,1,134,1,Secondary,Basic,122.5,1,0,0,1,0,0,22,15.5,2.8,-4.06,Dropout_Enrolled
1,1,1,9500,1,1,135,1,Basic,Basic,126.8,1,0,0,1,1,0,19,15.5,2.8,-4.06,Dropout_Enrolled
1,39,1,8014,0,1,120,1,Basic,Secondary,95,1,0,0,1,0,0,24,15.5,2.8,-4.06,Dropout_Enrolled
1,39,1,9003,1,1,130,1,Basic,Basic,100,0,0,1,0,1,0,28,15.5,2.8,-4.06,Dropout_Enrolled
2,1,1,9147,1,1,151,1,Basic,Basic,132.1,1,0,0,1,0,0,34,7.6,2.6,0.32,Dropout_Enrolled
1,1,1,9238,1,1,125,1,Basic,Basic,118.7,0,0,0,1,1,0,20,15.5,2.8,-4.06,Dropout_Enrolled
1,39,1,9130,1,40,129,1,Higher,Higher,155.3,1,0,0,1,0,0,27,12.4,0.5,1.79,Dropout_Enrolled
1,1,1,9147,1,1,120,1,Unknown,Unknown,111.6,0,0,1,1,1,1,21,10.8,1.4,1.74,Dropout_Enrolled
1,51,1,9853,1,1,139,1,Secondary,Secondary,134,0,0,0,1,0,0,21,12.4,0.5,1.79,Dropout_Enrolled
1,1,4,171,1,1,127,1,Secondary,Secondary,124.2,1,0,0,0,0,0,19,9.4,-0.8,-3.12,Dropout_Enrolled
1,1,1,9238,1,1,135,1,Basic,Basic,121.7,1,0,0,1,0,1,18,7.6,2.6,0.32,Dropout_Enrolled
1,17,3,9085,1,1,128,1,Secondary,Basic,124.2,0,0,0,0,0,0,21,7.6,2.6,0.32,Dropout_Enrolled
1,7,1,9130,1,2,133.1,6,Higher,Secondary,100,0,0,0,1,1,0,35,8.9,1.4,3.51,Dropout_Enrolled
1,1,6,9773,1,1,133.1,1,Secondary,Secondary,129.6,0,0,0,1,0,0,22,7.6,2.6,0.32,Dropout_Enrolled
1,1,1,9147,1,1,128,1,Secondary,Secondary,116.5,0,0,0,1,1,0,19,7.6,2.6,0.32,Dropout_Enrolled
1,44,1,9130,1,39,110,1,Higher,Higher,110,1,0,0,1,1,0,20,13.9,-0.3,0.79,Dropout_Enrolled
1,17,5,9500,1,1,130,1,Basic,Secondary,128.8,1,0,0,1,0,0,18,11.1,0.6,2.02,Dropout_Enrolled
1,17,2,9254,1,1,107,1,Secondary,Basic,102.8,1,0,0,1,0,0,20,10.8,1.4,1.74,Dropout_Enrolled
1,39,1,9670,1,1,133.1,1,Basic,Basic,100.2,1,0,0,0,0,0,26,16.2,0.3,-0.92,Dropout_Enrolled
1,1,1,171,1,1,122,1,Basic,Basic,115.7,1,0,0,1,0,0,20,9.4,-0.8,-3.12,Dropout_Enrolled
1,43,1,9119,1,1,133.1,1,Secondary,Secondary,136,0,0,0,1,1,0,31,16.2,0.3,-0.92,Dropout_Enrolled
1,1,1,9119,1,1,148,1,Basic,Basic,129.8,0,0,0,0,1,1,18,8.9,1.4,3.51,Dropout_Enrolled
1,39,1,9254,1,1,133.1,1,Basic,Basic,121.5,0,0,0,1,1,0,54,16.2,0.3,-0.92,Dropout_Enrolled
1,1,1,9991,0,1,140,1,Basic,Basic,124.6,0,0,0,1,0,0,29,15.5,2.8,-4.06,Dropout_Enrolled
1,17,1,9670,1,1,115,1,Basic,Basic,109.1,0,0,1,0,1,0,21,11.1,0.6,2.02,Dropout_Enrolled
1,1,1,9147,1,1,140,1,Basic,Basic,129.2,1,0,0,1,0,0,26,15.5,2.8,-4.06,Dropout_Enrolled
4,43,4,9991,0,12,133.1,1,Basic,Basic,153,0,0,0,0,0,0,40,7.6,2.6,0.32,Dropout_Enrolled
1,44,1,9119,1,39,140,1,Secondary,Basic,140,1,0,0,1,1,0,22,10.8,1.4,1.74,Dropout_Enrolled
1,17,1,9119,1,1,130,1,Basic,Basic,119.9,1,0,1,1,1,0,20,9.4,-0.8,-3.12,Dropout_Enrolled
1,17,2,9238,1,1,133,1,Higher,Secondary,136.2,1,0,0,1,0,0,19,7.6,2.6,0.32,Dropout_Enrolled
1,1,1,9238,1,1,127,1,Higher,Higher,115.8,1,0,0,1,1,0,19,11.1,0.6,2.02,Dropout_Enrolled
1,1,1,9773,1,1,125,1,Higher,Higher,119.1,1,0,0,1,0,0,22,9.4,-0.8,-3.12,Dropout_Enrolled
1,1,2,9070,1,1,121,1,Higher,Secondary,120.7,1,0,0,1,0,0,18,9.4,-0.8,-3.12,Dropout_Enrolled
1,39,1,9670,1,1,120,1,Basic,Basic,140,0,0,0,1,1,0,24,15.5,2.8,-4.06,Dropout_Enrolled
2,44,1,9991,0,39,130,1,Secondary,Basic,130,0,0,0,0,0,0,21,15.5,2.8,-4.06,Dropout_Enrolled
1,1,3,9773,1,1,146,1,Basic,Basic,134.1,1,0,0,1,1,1,18,10.8,1.4,1.74,Dropout_Enrolled
2,39,1,8014,0,1,120,1,Unknown,Unknown,101.8,0,0,0,0,0,0,32,10.8,1.4,1.74,Dropout_Enrolled
1,1,3,9500,1,1,136,1,Secondary,Secondary,127,1,0,0,1,0,0,19,9.4,-0.8,-3.12,Dropout_Enrolled
1,39,1,9003,1,1,130,1,Basic,Basic,120,1,0,0,1,1,0,28,15.5,2.8,-4.06,Dropout_Enrolled
1,1,1,9670,1,1,113,1,Basic,Basic,110.2,1,0,0,1,0,0,22,7.6,2.6,0.32,Dropout_Enrolled
1,1,5,9070,1,1,117,1,Basic,Basic,131,1,0,1,0,1,0,21,9.4,-0.8,-3.12,Dropout_Enrolled
1,39,1,9556,1,1,133.1,1,Higher,Higher,115.5,0,0,0,1,0,0,36,11.1,0.6,2.02,Dropout_Enrolled
1,17,1,9238,1,1,125,1,Secondary,Basic,119.8,0,0,0,1,0,0,18,11.1,0.6,2.02,Dropout_Enrolled
1,17,2,9853,1,1,141,1,Higher,Secondary,130.2,1,0,0,1,0,0,19,12.7,3.7,-1.7,Dropout_Enrolled
1,17,3,9147,1,1,122,1,Higher,Basic,116.1,1,0,1,1,1,0,19,8.9,1.4,3.51,Dropout_Enrolled
1,1,1,9500,1,1,138,1,Basic,Secondary,127.5,1,0,0,1,0,0,19,16.2,0.3,-0.92,Dropout_Enrolled
1,17,1,9853,1,1,119,1,Basic,Basic,125,1,0,0,1,0,1,21,10.8,1.4,1.74,Dropout_Enrolled
1,17,1,9147,1,1,137,1,Secondary,Basic,131.4,1,0,0,1,1,0,22,7.6,2.6,0.32,Dropout_Enrolled
1,1,1,9147,1,1,129,1,Basic,Basic,121,1,0,0,1,0,0,18,7.6,2.6,0.32,Dropout_Enrolled
1,44,1,9003,1,39,120,1,Secondary,Basic,120,0,0,0,1,1,0,23,15.5,2.8,-4.06,Dropout_Enrolled
1,43,1,9991,0,1,141,1,Basic,Basic,131.9,0,0,0,1,0,0,21,9.4,-0.8,-3.12,Dropout_Enrolled
1,17,1,9147,1,1,129,1,Basic,Basic,132.9,1,0,0,1,0,0,19,9.4,-0.8,-3.12,Dropout_Enrolled
1,1,1,9670,1,1,133.1,1,Basic,Basic,138,0,0,1,1,1,0,22,11.1,0.6,2.02,Dropout_Enrolled
1,1,1,9238,1,1,134,1,Secondary,Basic,129.8,0,0,0,1,0,1,20,15.5,2.8,-4.06,Graduate
1,43,1,9238,1,1,149,1,Basic,Basic,130.5,1,0,0,1,0,0,28,10.8,1.4,1.74,Graduate
1,17,2,9254,1,1,132,1,Basic,Basic,122.6,1,0,0,1,0,1,20,13.9,-0.3,0.79,Graduate
1,5,5,9254,1,1,122,1,Secondary,Basic,119.6,1,0,0,1,0,1,19,12.4,0.5,1.79,Graduate
1,1,1,171,1,1,156,1,Higher,Higher,147.7,1,0,0,1,0,0,21,8.9,1.4,3.51,Graduate
1,1,1,9853,1,1,133,1,Basic,Basic,124.6,1,0,0,1,0,1,18,9.4,-0.8,-3.12,Graduate
1,17,1,9500,1,1,150,1,Basic,Basic,130.3,0,0,0,1,0,1,19,12.7,3.7,-1.7,Graduate
1,17,3,9254,1,1,118,1,Basic,Secondary,115.9,1,0,0,1,1,1,18,8.9,1.4,3.51,Graduate
1,1,4,9085,1,1,145,1,Basic,Secondary,145,1,0,0,1,0,1,19,10.8,1.4,1.74,Graduate
1,7,1,9238,1,40,130,1,Basic,Basic,130,0,0,0,1,1,0,37,15.5,2.8,-4.06,Graduate
1,17,1,9238,1,1,145,1,Basic,Basic,138,1,0,0,1,0,0,20,9.4,-0.8,-3.12,Graduate
1,1,1,9130,1,1,160,1,Higher,Higher,155.1,1,0,0,1,0,0,20,12.7,3.7,-1.7,Graduate
1,51,1,9085,1,1,127,1,Higher,Higher,138.8,1,0,0,1,0,0,22,8.9,1.4,3.51,Graduate
1,42,1,9500,1,1,100,1,Basic,Basic,100,1,0,0,1,0,1,19,10.8,1.4,1.74,Graduate
1,1,3,9147,1,1,133,1,Basic,Basic,119.7,1,0,0,1,1,0,19,13.9,-0.3,0.79,Graduate
1,53,1,9147,1,42,130,1,Secondary,Basic,133.8,1,0,0,1,0,0,21,8.9,1.4,3.51,Graduate
1,1,3,9500,1,1,135,1,Basic,Basic,126.3,1,0,1,1,0,1,18,15.5,2.8,-4.06,Graduate
1,17,1,9500,1,1,135,1,Basic,Basic,129.2,0,0,0,1,0,1,18,11.1,0.6,2.02,Graduate
1,42,1,9085,1,1,133.1,1,Secondary,Secondary,128.2,0,0,0,1,0,0,24,9.4,-0.8,-3.12,Graduate
1,15,1,9147,1,1,130,26,Secondary,Secondary,130,0,0,0,1,0,0,19,11.1,0.6,2.02,Graduate
1,1,1,9238,1,1,126,1,Basic,Basic,126.7,1,0,0,1,0,0,19,7.6,2.6,0.32,Graduate
1,1,1,9070,1,1,135,1,Basic,Basic,128,1,0,0,1,0,1,19,10.8,1.4,1.74,Graduate
1,1,1,9238,1,1,168,1,Basic,Basic,149.5,0,0,0,1,0,0,18,12.4,0.5,1.79,Graduate
1,1,1,9500,1,1,118,1,Basic,Basic,117.8,0,0,0,1,0,1,19,12.4,0.5,1.79,Graduate
1,17,1,9130,1,1,156,1,Higher,Secondary,166.9,0,0,0,1,0,0,18,7.6,2.6,0.32,Graduate
1,17,6,9773,1,1,141,1,Basic,Basic,127.7,1,0,0,1,1,0,18,9.4,-0.8,-3.12,Graduate
1,1,1,9085,1,1,120,1,Basic,Basic,112.7,0,0,0,1,1,0,19,11.1,0.6,2.02,Graduate
1,17,1,9085,1,1,134,1,Basic,Basic,120.4,1,0,0,1,1,0,18,16.2,0.3,-0.92,Graduate
1,17,1,9670,1,1,118,1,Basic,Basic,113.5,1,0,0,1,0,1,19,12.4,0.5,1.79,Graduate
1,16,4,9238,1,1,135,1,Basic,Basic,121,1,0,0,1,0,0,18,10.8,1.4,1.74,Graduate
1,17,2,9238,1,3,105,1,Basic,Basic,129.7,1,0,0,1,0,1,20,9.4,-0.8,-3.12,Graduate
1,18,1,9254,1,1,137,1,Basic,Basic,126.9,0,0,0,1,1,0,20,16.2,0.3,-0.92,Graduate
1,1,3,171,1,1,139,1,Basic,Basic,142.2,1,0,0,1,1,1,20,8.9,1.4,3.51,Graduate
1,17,5,9773,1,1,111,1,Basic,Secondary,115.9,1,0,0,1,0,0,22,13.9,-0.3,0.79,Graduate
1,44,1,9085,1,39,140,1,Secondary,Basic,140,0,0,0,1,0,0,21,13.9,-0.3,0.79,Graduate
1,17,4,9070,1,1,126,1,Secondary,Basic,120.4,1,0,0,1,0,0,18,16.2,0.3,-0.92,Graduate
1,42,1,9500,1,6,141,1,Basic,Secondary,145,0,0,0,1,0,0,21,7.6,2.6,0.32,Graduate
1,16,1,9500,1,1,133.1,1,Basic,Basic,95,1,0,0,1,0,0,20,12.4,0.5,1.79,Graduate
1,39,1,9991,0,1,120,1,Basic,Basic,111.1,0,0,0,1,0,0,31,7.6,2.6,0.32,Graduate
1,16,2,9238,1,1,126,1,Basic,Basic,127.1,1,0,0,1,0,1,19,9.4,-0.8,-3.12,Graduate
1,17,1,9238,1,1,131,1,Secondary,Secondary,129.3,0,0,0,1,0,0,19,11.1,0.6,2.02,Graduate
1,1,2,9500,1,1,149,1,Basic,Basic,126.5,1,0,0,1,0,0,18,12.7,3.7,-1.7,Graduate
2,43,1,9670,1,1,100,1,Unknown,Unknown,128.2,0,0,0,1,1,0,32,7.6,2.6,0.32,Graduate
1,1,1,171,1,1,151,1,Basic,Basic,147.5,1,0,0,1,0,0,18,7.6,2.6,0.32,Graduate
1,1,1,9238,1,1,148,1,Basic,Basic,143.5,0,0,0,1,0,0,18,10.8,1.4,1.74,Graduate
1,44,1,9003,1,39,160,1,Higher,Higher,160,1,0,0,1,1,0,20,12.4,0.5,1.79,Graduate
1,15,1,9238,1,1,150,26,Higher,Basic,132.5,1,0,0,0,0,0,20,13.9,-0.3,0.79,Graduate
1,1,2,9070,1,1,135,1,Basic,Basic,134,1,0,0,1,0,1,22,12.7,3.7,-1.7,Graduate
1,1,6,9500,1,1,127,1,Secondary,Basic,120.2,1,0,0,1,0,1,19,12.4,0.5,1.79,Graduate
1,17,5,9500,1,1,147,1,Basic,Secondary,138.5,1,0,0,1,0,0,19,9.4,-0.8,-3.12,Graduate
1,44,1,9003,1,39,160,1,Basic,Basic,160,0,0,1,1,0,1,19,15.5,2.8,-4.06,Graduate
1,17,1,9670,1,1,132,1,Secondary,Secondary,119.4,1,0,0,1,0,1,18,8.9,1.4,3.51,Graduate
1,1,3,9773,1,1,150,1,Basic,Basic,146.5,1,0,0,1,0,1,20,11.1,0.6,2.02,Graduate
1,1,2,9500,1,1,115,1,Basic,Basic,108.4,1,0,0,1,0,1,20,13.9,-0.3,0.79,Graduate
1,1,2,9238,1,1,129,1,Basic,Secondary,129.4,1,0,0,1,0,0,18,9.4,-0.8,-3.12,Graduate
1,7,1,9500,1,3,140,1,Secondary,Basic,140,0,0,0,1,0,0,30,10.8,1.4,1.74,Graduate
1,39,1,9085,1,3,150,1,Higher,Higher,173.3,1,0,0,1,0,0,25,13.9,-0.3,0.79,Graduate
1,1,2,9853,1,1,127,1,Basic,Basic,137.5,1,0,0,1,0,0,21,7.6,2.6,0.32,Graduate
1,17,4,9500,1,1,148,1,Higher,Basic,131.9,1,0,0,1,0,1,18,15.5,2.8,-4.06,Graduate
1,7,1,9991,0,3,130,1,Higher,Basic,133.9,0,0,0,1,0,0,28,16.2,0.3,-0.92,Graduate
1,17,1,9670,1,1,120,1,Basic,Basic,113.4,1,0,0,1,1,1,19,8.9,1.4,3.51,Graduate
1,17,1,9773,1,1,120,1,Basic,Basic,117.9,1,0,0,1,0,1,21,8.9,1.4,3.51,Graduate
1,39,1,9500,1,19,133.1,1,Basic,Basic,106,1,0,0,1,1,0,24,7.6,2.6,0.32,Graduate
1,17,2,171,1,1,131,1,Higher,Secondary,148.9,1,0,0,1,0,0,20,9.4,-0.8,-3.12,Graduate
1,39,1,9991,0,1,120,1,Basic,Basic,160,0,0,0,1,1,0,40,15.5,2.8,-4.06,Graduate
1,44,1,9070,1,39,150,1,Secondary,Basic,147.7,0,0,1,1,0,1,22,12.4,0.5,1.79,Graduate
1,39,1,8014,0,1,130,1,Basic,Basic,120,0,0,0,1,0,0,58,9.4,-0.8,-3.12,Graduate
1,1,4,9500,1,1,126,1,Basic,Basic,125,1,0,0,1,0,0,19,12.4,0.5,1.79,Graduate
4,39,1,9254,1,1,120,1,Basic,Basic,95,0,0,0,1,0,1,36,10.8,1.4,1.74,Graduate
1,17,5,9500,1,1,124,1,Higher,Basic,119.8,0,0,0,1,1,0,19,10.8,1.4,1.74,Graduate
1,1,1,9238,1,1,128,1,Basic,Basic,120,0,0,0,1,0,1,18,11.1,0.6,2.02,Graduate
1,17,2,9238,1,1,139,1,Higher,Higher,132.7,1,0,0,1,0,0,19,9.4,-0.8,-3.12,Graduate
1,44,1,9238,1,39,140,41,Secondary,Secondary,137.5,0,0,1,1,0,1,23,12.4,0.5,1.79,Graduate
1,43,1,8014,0,1,161,1,Basic,Basic,100,0,0,0,1,1,0,44,12.7,3.7,-1.7,Graduate
1,17,1,9238,1,1,138,1,Basic,Basic,134.2,1,0,0,1,0,1,18,11.1,0.6,2.02,Graduate
1,1,1,9853,1,1,140,1,Basic,Basic,145.3,0,0,0,1,0,0,18,7.6,2.6,0.32,Graduate
1,17,4,9500,1,1,140,1,Basic,Basic,133.3,1,0,0,1,0,0,19,7.6,2.6,0.32,Graduate
1,17,2,9500,1,1,135,1,Secondary,Basic,133.5,1,0,0,1,0,0,19,9.4,-0.8,-3.12,Graduate
5,7,1,9991,0,2,120,1,Basic,Basic,120,0,0,0,1,0,0,46,8.9,1.4,3.51,Graduate
1,1,1,9500,1,1,131,1,Higher,Higher,120.5,0,0,0,1,0,0,19,7.6,2.6,0.32,Graduate
1,53,1,9003,1,42,140,1,Higher,Basic,135.3,0,0,0,1,1,0,21,8.9,1.4,3.51,Graduate
1,17,4,9238,1,1,123,1,Basic,Basic,116,1,0,0,1,0,1,18,8.9,1.4,3.51,Graduate
1,17,6,9500,1,1,143,1,Secondary,Basic,129.9,0,0,0,1,0,1,20,11.1,0.6,2.02,Graduate
1,39,1,9556,1,1,133.1,1,Basic,Basic,100,1,0,0,1,0,1,25,8.9,1.4,3.51,Graduate
1,17,4,9500,1,1,136,1,Higher,Higher,132.5,1,0,0,1,0,0,19,11.1,0.6,2.02,Graduate
1,1,1,9500,1,1,110,1,Basic,Basic,105.8,1,0,0,1,1,0,22,11.1,0.6,2.02,Graduate
1,43,1,9500,1,1,140,1,Basic,Basic,138.6,0,0,0,1,0,1,19,16.2,0.3,-0.92,Graduate
2,43,1,9147,1,1,130,1,Basic,Basic,138,0,0,0,1,0,0,34,7.6,2.6,0.32,Graduate
1,1,3,9773,1,1,110,1,Basic,Basic,105.5,1,0,0,1,0,0,19,12.4,0.5,1.79,Graduate
1,39,1,9119,1,1,120,1,Basic,Basic,98.7,0,0,0,1,1,1,28,12.4,0.5,1.79,Graduate
1,1,1,9500,1,1,141,1,Secondary,Basic,131.9,1,0,0,1,0,1,18,11.1,0.6,2.02,Graduate
1,1,2,9670,1,1,160,1,Higher,Secondary,137.3,1,0,0,1,0,0,19,12.7,3.7,-1.7,Graduate
4,39,1,9991,0,1,120,1,Basic,Basic,113.9,1,0,0,1,0,0,39,7.6,2.6,0.32,Graduate
1,1,1,9500,1,1,140,1,Secondary,Basic,128.8,0,0,0,1,1,0,18,12.4,0.5,1.79,Graduate
1,17,4,9556,1,1,112,1,Secondary,Secondary,107.1,1,0,0,1,0,0,20,12.4,0.5,1.79,Graduate
4,39,1,8014,0,19,133.1,1,Basic,Basic,113.5,0,0,0,1,0,1,39,11.1,0.6,2.02,Graduate
1,44,1,9085,1,39,140,1,Secondary,Basic,140,1,0,0,1,0,0,21,12.4,0.5,1.79,Graduate
1,1,2,9070,1,1,137,1,Basic,Basic,127.2,1,0,0,1,0,1,20,13.9,-0.3,0.79,Graduate
1,1,1,9238,1,1,132,1,Secondary,Basic,127.1,1,0,0,1,0,1,20,8.9,1.4,3.51,Graduate
1,17,2,9773,1,1,133.1,41,Basic,Secondary,105,1,0,0,0,0,0,21,8.9,1.4,3.51,Graduate
1,43,1,9500,1,1,150,1,Basic,Basic,130.8,1,0,0,1,0,1,21,12.7,3.7,-1.7,Graduate
1,18,1,9119,1,1,108,1,Secondary,Secondary,105.6,1,0,0,1,1,0,20,12.4,0.5,1.79,Graduate
1,17,4,9500,1,1,137,1,Secondary,Basic,121.3,1,0,0,1,1,1,18,10.8,1.4,1.74,Graduate
1,17,5,9853,1,1,132,1,Basic,Basic,119.1,1,0,0,1,0,1,19,9.4,-0.8,-3.12,Graduate
1,1,2,9773,1,1,143,1,Secondary,Secondary,144.1,1,0,0,1,1,1,19,12.7,3.7,-1.7,Graduate
1,17,1,9003,1,1,131,1,Basic,Secondary,134.5,1,0,0,1,0,1,19,12.4,0.5,1.79,Graduate
1,51,1,9085,1,1,125,1,Secondary,Secondary,120,0,0,0,1,0,0,22,11.1,0.6,2.02,Graduate
1,1,2,9254,1,1,132,1,Secondary,Basic,129.9,1,0,0,1,0,1,19,8.9,1.4,3.51,Graduate
1,17,1,9500,1,1,137,1,Basic,Basic,124.9,0,0,0,1,0,1,19,15.5,2.8,-4.06,Graduate
1,1,1,171,1,1,168,1,Basic,Basic,155.1,1,0,1,0,1,1,18,12.7,3.7,-1.7,Graduate
1,1,4,171,1,1,131,1,Secondary,Secondary,149.9,1,0,0,1,1,0,18,11.1,0.6,2.02,Graduate
1,1,1,171,1,1,134,1,Basic,Basic,136.1,1,0,0,1,1,0,19,9.4,-0.8,-3.12,Graduate
2,39,1,9500,1,3,130,1,Secondary,Secondary,126,0,0,0,1,1,0,32,13.9,-0.3,0.79,Graduate
1,17,4,9500,1,1,132,1,Basic,Basic,125.5,0,0,0,1,0,1,19,15.5,2.8,-4.06,Graduate
4,39,1,9773,1,19,133.1,1,Basic,Basic,117.5,0,0,0,1,0,0,39,10.8,1.4,1.74,Graduate
1,1,1,9500,1,1,143,1,Basic,Basic,140,0,0,0,1,1,0,19,12.7,3.7,-1.7,Graduate
1,17,1,9085,1,1,140,1,Basic,Basic,129.9,0,0,0,1,0,0,19,9.4,-0.8,-3.12,Graduate
1,1,1,9500,1,1,132,1,Basic,Basic,128,1,0,0,1,0,1,19,7.6,2.6,0.32,Graduate
2,39,1,8014,0,1,120,1,Basic,Basic,117,0,0,0,1,1,0,33,10.8,1.4,1.74,Graduate
1,17,1,9238,1,1,133,1,Basic,Basic,123.6,0,0,0,1,0,1,19,15.5,2.8,-4.06,Graduate
2,39,2,8014,0,1,100,1,Unknown,Unknown,100,1,0,0,1,0,0,41,7.6,2.6,0.32,Graduate
1,18,1,9500,1,1,135,1,Secondary,Basic,127.5,1,0,0,1,0,1,19,16.2,0.3,-0.92,Graduate
1,1,1,171,1,1,138,1,Secondary,Higher,147.5,1,0,0,1,0,1,19,8.9,1.4,3.51,Graduate
1,1,1,8014,0,1,128,1,Basic,Basic,122.1,0,0,0,1,0,0,21,7.6,2.6,0.32,Graduate
1,1,4,9500,1,1,136,1,Basic,Basic,126.3,1,0,0,1,0,1,18,7.6,2.6,0.32,Graduate
1,17,1,9085,1,1,132,1,Basic,Basic,119.1,0,0,0,1,0,0,20,12.4,0.5,1.79,Graduate
1,17,1,9003,1,1,120,1,Basic,Basic,131.4,1,0,0,1,1,1,23,15.5,2.8,-4.06,Graduate
1,39,1,8014,0,19,149,1,Unknown,Unknown,126.3,0,0,0,1,0,0,55,7.6,2.6,0.32,Graduate
1,17,3,9773,1,1,134,1,Higher,Secondary,129.5,1,0,0,1,1,0,18,16.2,0.3,-0.92,Graduate
1,7,1,9085,1,40,140,1,Secondary,Basic,140,1,0,0,1,0,0,23,12.4,0.5,1.79,Graduate
1,17,3,9070,1,1,142,1,Secondary,Basic,146.9,1,0,0,1,0,1,18,16.2,0.3,-0.92,Graduate
1,51,1,33,1,1,121,1,Basic,Basic,118.6,0,0,0,1,0,0,26,8.9,1.4,3.51,Graduate
1,1,2,9556,1,1,125,1,Basic,Secondary,116.3,1,0,0,1,0,0,18,16.2,0.3,-0.92,Graduate
2,39,1,9238,1,1,120,1,Basic,Basic,116,0,0,0,1,0,0,44,12.7,3.7,-1.7,Graduate
1,1,4,9500,1,1,136,1,Secondary,Secondary,123.8,1,0,0,1,0,1,19,12.7,3.7,-1.7,Graduate
1,1,1,9254,1,1,115,1,Higher,Higher,112.6,0,0,0,1,1,1,20,8.9,1.4,3.51,Graduate
1,1,4,9500,1,1,137,1,Basic,Basic,127.5,1,0,0,1,0,0,18,9.4,-0.8,-3.12,Graduate
1,17,2,9773,1,1,133.1,1,Higher,Secondary,115,1,0,0,1,0,0,19,16.2,0.3,-0.92,Graduate
1,1,4,9238,1,1,134,1,Basic,Basic,128.4,1,0,0,1,0,1,18,10.8,1.4,1.74,Graduate
1,39,1,9500,1,1,150,1,Basic,Higher,140,0,0,0,1,1,0,24,15.5,2.8,-4.06,Graduate
1,44,1,9003,1,39,150,1,Basic,Basic,150,0,0,0,1,0,1,21,13.9,-0.3,0.79,Graduate
1,39,1,9556,1,1,120,1,Basic,Basic,120,0,0,1,1,0,1,24,12.7,3.7,-1.7,Graduate
1,39,1,9500,1,19,133.1,1,Basic,Basic,116,0,0,0,1,0,1,26,7.6,2.6,0.32,Graduate
2,39,1,9500,1,38,133.1,1,Basic,Basic,146.6,0,0,0,1,1,0,37,13.9,-0.3,0.79,Graduate
1,17,4,9070,1,1,144,1,Basic,Secondary,137.4,1,0,0,1,1,0,19,10.8,1.4,1.74,Graduate
1,1,3,9238,1,1,135,1,Secondary,Secondary,121,1,0,0,1,0,1,19,12.4,0.5,1.79,Graduate
1,1,1,9070,1,1,117,1,Secondary,Secondary,118.4,0,0,0,1,1,0,19,16.2,0.3,-0.92,Graduate
1,1,2,9670,1,1,131,1,Secondary,Basic,135.9,1,0,0,1,0,1,18,8.9,1.4,3.51,Graduate
1,18,1,9147,1,1,128,1,Basic,Basic,121.7,1,0,0,1,0,0,19,12.4,0.5,1.79,Graduate
1,51,1,8014,0,42,140,1,Basic,Basic,138,1,0,1,1,0,1,21,8.9,1.4,3.51,Graduate
1,53,1,9003,1,42,130,1,Secondary,Secondary,125.8,0,0,1,1,0,0,21,8.9,1.4,3.51,Graduate
1,1,1,9070,1,1,131,1,Basic,Basic,131.7,1,0,0,1,0,0,20,12.7,3.7,-1.7,Graduate
1,1,1,9070,1,1,126,1,Basic,Basic,119.4,0,0,0,1,0,1,21,16.2,0.3,-0.92,Graduate
1,10,1,9773,1,1,152,22,Basic,Basic,152,1,0,0,1,0,0,22,12.7,3.7,-1.7,Graduate
1,17,1,9500,1,1,134,1,Basic,Secondary,133.5,1,0,0,1,1,1,20,15.5,2.8,-4.06,Graduate
1,1,2,9500,1,1,124,1,Basic,Basic,116,1,0,0,1,0,1,21,12.7,3.7,-1.7,Graduate
1,1,2,9670,1,1,130,1,Basic,Basic,128.6,1,0,1,1,0,0,19,7.6,2.6,0.32,Graduate
2,1,1,9085,1,1,139,1,Basic,Basic,127.1,0,0,0,1,1,1,23,10.8,1.4,1.74,Graduate
1,1,1,9130,1,1,127,1,Secondary,Secondary,120.4,1,0,0,1,0,0,18,13.9,-0.3,0.79,Graduate
1,17,1,9853,1,1,160,1,Secondary,Basic,144.3,1,0,0,1,0,0,18,9.4,-0.8,-3.12,Graduate
1,1,1,9500,1,1,151,1,Basic,Basic,138,1,0,0,1,0,0,18,7.6,2.6,0.32,Graduate
1,1,2,9500,1,1,139,1,Basic,Basic,125,1,0,0,1,0,1,19,7.6,2.6,0.32,Graduate
1,1,4,171,1,1,131,1,Basic,Basic,119.8,1,1,0,1,0,0,22,16.2,0.3,-0.92,Graduate
1,1,1,9773,1,1,140,1,Basic,Basic,135.1,1,0,0,1,0,0,18,9.4,-0.8,-3.12,Graduate
1,1,1,9773,1,1,123,1,Secondary,Basic,116.7,0,0,0,1,0,1,18,12.4,0.5,1.79,Graduate
1,39,1,9085,1,1,150,1,Basic,Basic,132,1,0,0,1,0,0,24,10.8,1.4,1.74,Graduate
1,1,1,9085,1,1,154,1,Basic,Basic,141.4,0,0,0,1,0,1,19,11.1,0.6,2.02,Graduate
1,1,1,9238,1,1,133,1,Higher,Secondary,131.6,0,0,0,1,0,0,18,11.1,0.6,2.02,Graduate
1,1,5,9254,1,1,101,1,Higher,Basic,98.9,1,0,0,1,1,0,20,12.4,0.5,1.79,Graduate
1,44,1,9003,1,39,150,1,Basic,Basic,150,0,0,1,1,0,1,19,13.9,-0.3,0.79,Graduate
1,16,4,9773,1,1,109,1,Basic,Basic,137,1,0,0,1,0,1,18,10.8,1.4,1.74,Graduate
1,17,2,171,1,1,142,1,Higher,Secondary,139.4,1,0,0,1,0,1,18,15.5,2.8,-4.06,Graduate
1,1,3,9085,1,1,158,1,Secondary,Basic,153.6,1,0,0,1,0,1,18,8.9,1.4,3.51,Graduate
1,1,3,9500,1,1,134,1,Secondary,Basic,120.5,1,0,0,1,1,1,18,15.5,2.8,-4.06,Graduate
1,1,1,8014,0,1,125,1,Basic,Basic,114.9,0,0,0,1,0,0,29,9.4,-0.8,-3.12,Graduate
2,39,1,9773,1,19,133.1,1,Basic,Basic,162,0,0,1,1,1,1,49,10.8,1.4,1.74,Graduate
1,1,1,9500,1,1,129,1,Basic,Basic,119.6,1,0,0,1,0,1,20,15.5,2.8,-4.06,Graduate
1,1,1,9853,1,1,137,1,Basic,Basic,132.8,1,0,0,1,0,0,18,7.6,2.6,0.32,Graduate
1,17,5,9500,1,1,141,1,Secondary,Secondary,133,1,0,0,1,0,0,18,13.9,-0.3,0.79,Graduate
1,17,1,9500,1,1,152,1,Basic,Basic,132.5,0,0,0,1,1,0,21,10.8,1.4,1.74,Graduate
1,1,3,9500,1,1,102,1,Secondary,Basic,100.6,1,0,0,1,0,1,20,12.4,0.5,1.79,Graduate
1,17,4,9147,1,1,121,1,Basic,Basic,113,1,0,0,1,0,1,18,13.9,-0.3,0.79,Graduate
1,1,5,9773,1,1,118,1,Basic,Basic,113.8,1,0,0,1,0,0,19,8.9,1.4,3.51,Graduate
1,1,1,9070,1,1,182,1,Basic,Secondary,156.8,1,0,0,1,0,0,18,10.8,1.4,1.74,Graduate
1,1,1,9500,1,1,160,1,Basic,Basic,154.4,0,0,0,1,0,1,18,15.5,2.8,-4.06,Graduate
1,1,2,9773,1,1,135,1,Basic,Basic,126.3,1,1,0,1,0,1,20,8.9,1.4,3.51,Graduate
1,17,5,9500,1,1,141,1,Basic,Basic,131.9,1,0,0,1,0,1,18,15.5,2.8,-4.06,Graduate
2,7,1,8014,0,3,124.4,1,Basic,Unknown,130,0,0,0,1,0,0,30,7.6,2.6,0.32,Graduate
1,7,1,9991,0,40,140,1,Basic,Basic,140,0,0,0,1,0,0,26,12.4,0.5,1.79,Graduate
2,39,1,8014,0,1,146,1,Basic,Basic,120.5,0,0,0,1,0,0,44,10.8,1.4,1.74,Graduate
2,39,1,9500,1,1,133.1,1,Basic,Basic,120,0,0,0,1,0,1,32,12.7,3.7,-1.7,Graduate
1,39,1,8014,0,1,120,1,Secondary,Secondary,150.5,0,0,0,1,0,0,27,15.5,2.8,-4.06,Graduate
1,1,1,9238,1,1,145,1,Basic,Basic,148.9,1,0,0,1,0,1,18,10.8,1.4,1.74,Graduate
1,1,1,9853,1,1,153,1,Basic,Basic,153.7,0,0,0,1,0,1,18,15.5,2.8,-4.06,Graduate
1,1,1,171,1,1,170,1,Basic,Basic,160.6,1,0,0,1,1,1,18,12.7,3.7,-1.7,Graduate
1,51,1,9070,1,1,130,1,Basic,Basic,124.5,0,0,0,1,0,1,20,11.1,0.6,2.02,Graduate
1,1,1,9085,1,1,140,1,Higher,Secondary,124.1,0,0,0,1,0,0,18,9.4,-0.8,-3.12,Graduate
1,17,2,9500,1,1,125,1,Basic,Basic,114.5,1,0,0,1,0,0,18,16.2,0.3,-0.92,Graduate
1,1,2,9070,1,1,145,1,Secondary,Basic,133.5,0,0,0,1,0,0,19,12.7,3.7,-1.7,Graduate
1,1,1,9085,1,1,133.1,1,Basic,Basic,106,1,0,0,1,0,1,21,15.5,2.8,-4.06,Graduate
1,1,1,9085,1,1,123,1,Basic,Basic,122.3,0,0,0,1,0,0,18,7.6,2.6,0.32,Graduate
1,1,1,9238,1,1,135,1,Secondary,Secondary,133.3,0,0,0,1,0,1,20,11.1,0.6,2.02,Graduate
1,1,2,9500,1,1,140,1,Basic,Basic,138.8,1,0,0,1,0,0,19,7.6,2.6,0.32,Graduate
1,1,6,9500,1,1,103,1,Secondary,Higher,100.6,1,1,0,1,0,0,22,11.1,0.6,2.02,Graduate
1,39,1,9991,0,1,130,1,Secondary,Secondary,140,0,0,0,1,1,0,26,15.5,2.8,-4.06,Graduate
1,43,1,9556,1,1,130,1,Secondary,Basic,128,1,0,0,1,1,0,20,15.5,2.8,-4.06,Graduate
1,16,2,9500,1,1,127,1,Higher,Basic,119,1,0,0,1,0,1,19,10.8,1.4,1.74,Graduate
1,1,6,9147,1,1,115,1,Secondary,Basic,117.1,1,0,1,1,0,0,22,7.6,2.6,0.32,Graduate
1,1,1,9773,1,1,133.1,1,Secondary,Higher,116,0,0,0,1,1,0,20,16.2,0.3,-0.92,Graduate
1,1,6,9147,1,1,139,1,Basic,Secondary,125,1,0,0,1,0,0,18,7.6,2.6,0.32,Graduate
1,43,1,9670,1,1,130,1,Unknown,Unknown,114.8,0,0,0,1,1,0,25,7.6,2.6,0.32,Graduate
1,1,2,9085,1,1,117,1,Basic,Basic,113.5,1,0,0,1,0,1,21,10.8,1.4,1.74,Graduate
1,1,1,9147,1,1,126,1,Higher,Basic,115.2,0,0,0,1,1,0,19,16.2,0.3,-0.92,Graduate
1,44,1,9003,1,39,170,1,Basic,Basic,170,1,0,0,1,1,0,20,16.2,0.3,-0.92,Graduate
1,51,1,9147,1,1,140,1,Basic,Basic,120.4,0,0,1,0,0,0,32,16.2,0.3,-0.92,Graduate
1,16,2,9238,1,1,130,1,Basic,Basic,126.9,1,0,0,1,0,0,18,9.4,-0.8,-3.12,Graduate
1,1,1,9085,1,1,134,1,Secondary,Secondary,128.4,1,0,0,1,0,1,18,9.4,-0.8,-3.12,Graduate
1,1,6,9500,1,1,122,1,Basic,Basic,116.6,1,0,1,1,1,1,20,12.4,0.5,1.79,Graduate
1,1,1,9773,1,1,117,1,Secondary,Basic,118.4,0,0,0,1,1,1,19,15.5,2.8,-4.06,Graduate
1,43,1,9500,1,1,134,1,Basic,Basic,120.7,0,0,0,1,0,1,19,16.2,0.3,-0.92,Graduate
1,1,1,171,1,1,143,1,Secondary,Secondary,155.3,1,1,0,1,0,0,18,11.1,0.6,2.02,Graduate
1,17,3,9238,1,1,141,1,Higher,Higher,124.9,1,0,0,1,0,0,19,12.7,3.7,-1.7,Graduate
1,1,1,9238,1,1,122,1,Secondary,Basic,127.3,1,0,1,1,0,0,20,9.4,-0.8,-3.12,Graduate
1,1,1,9070,1,1,130,41,Basic,Basic,125.5,1,0,0,1,0,1,19,11.1,0.6,2.02,Graduate
1,39,1,9500,1,1,127,1,Basic,Basic,160,0,0,0,1,1,0,28,16.2,0.3,-0.92,Graduate
1,1,1,9238,1,1,141,1,Basic,Secondary,128.8,1,0,0,1,1,0,18,10.8,1.4,1.74,Graduate
1,10,1,9254,1,1,115,24,Higher,Secondary,116.1,1,0,0,1,0,0,19,12.4,0.5,1.79,Graduate
1,42,1,9500,1,1,100,1,Secondary,Basic,136,1,0,0,1,0,0,21,15.5,2.8,-4.06,Graduate
2,1,1,9556,1,1,144,1,Basic,Basic,139.8,0,0,1,1,1,0,24,10.8,1.4,1.74,Graduate
1,17,5,9070,1,1,133,1,Higher,Secondary,132,1,1,0,1,0,1,17,15.5,2.8,-4.06,Graduate
1,18,2,9670,1,1,121,1,Basic,Basic,111.9,1,0,0,1,1,0,19,13.9,-0.3,0.79,Graduate
1,17,1,9500,1,1,137,1,Basic,Basic,131,1,0,0,1,0,1,18,9.4,-0.8,-3.12,Graduate
1,1,3,9853,1,1,122,1,Secondary,Higher,113.6,0,0,0,1,0,0,19,11.1,0.6,2.02,Graduate
1,1,1,9500,1,1,140,1,Basic,Basic,130,1,0,0,1,1,1,18,7.6,2.6,0.32,Graduate
1,18,1,9500,1,1,140,1,Basic,Basic,126,1,0,0,1,0,0,18,12.7,3.7,-1.7,Graduate
2,39,1,9003,1,1,150,1,Basic,Basic,140,0,0,0,1,1,0,60,15.5,2.8,-4.06,Graduate
1,1,4,9500,1,1,140,1,Basic,Basic,129.5,1,0,0,1,0,0,18,10.8,1.4,1.74,Graduate
1,1,1,9773,1,1,125,1,Basic,Secondary,130.6,1,0,0,1,0,1,18,8.9,1.4,3.51,Graduate
2,57,1,9991,0,1,133.1,41,Basic,Basic,100,0,0,0,1,0,0,37,8.9,1.4,3.51,Graduate
2,1,1,9500,1,1,156,1,Secondary,Secondary,135.5,0,0,0,1,0,0,18,12.7,3.7,-1.7,Graduate
1,1,1,9670,1,1,131,1,Basic,Basic,127.9,0,0,0,1,0,1,19,9.4,-0.8,-3.12,Graduate
1,44,1,9003,1,39,140,1,Secondary,Secondary,140,1,0,0,1,0,0,20,12.4,0.5,1.79,Graduate
1,17,1,9853,1,1,126,1,Secondary,Basic,132.7,0,0,0,1,0,1,18,10.8,1.4,1.74,Graduate
1,1,2,9773,1,1,130,1,Basic,Basic,126.5,1,0,0,1,0,0,18,12.7,3.7,-1.7,Graduate
1,1,2,9500,1,1,131,1,Basic,Secondary,128.3,1,0,0,1,0,1,18,12.7,3.7,-1.7,Graduate
1,1,1,9238,1,1,152,1,Secondary,Basic,144.7,0,0,0,1,0,0,20,16.2,0.3,-0.92,Graduate
1,39,1,9670,1,12,170,1,Secondary,Basic,110,0,0,0,1,1,1,25,15.5,2.8,-4.06,Graduate
1,1,1,9670,1,1,154,1,Secondary,Secondary,154.7,0,0,0,1,0,1,18,9.4,-0.8,-3.12,Graduate
1,43,1,9070,1,1,141,1,Secondary,Basic,127,0,0,0,1,0,0,20,12.7,3.7,-1.7,Graduate
1,1,1,9070,1,1,131,1,Higher,Higher,135.9,0,0,0,1,0,1,21,13.9,-0.3,0.79,Graduate
1,17,1,9130,1,1,130,1,Basic,Basic,122.5,0,0,0,1,1,0,19,9.4,-0.8,-3.12,Graduate
1,1,1,9147,1,1,156,1,Higher,Basic,151.1,0,0,1,1,1,0,19,16.2,0.3,-0.92,Graduate
1,53,1,9556,1,42,140,1,Secondary,Basic,140,0,0,0,1,0,1,22,8.9,1.4,3.51,Graduate
2,39,1,9991,0,3,140,1,Basic,Basic,152.4,0,0,0,1,0,0,26,10.8,1.4,1.74,Graduate
1,17,2,9238,1,1,133,1,Secondary,Basic,127.4,1,0,0,1,0,1,18,12.7,3.7,-1.7,Graduate
1,42,1,9500,1,1,157,1,Higher,Higher,100,0,0,0,1,0,0,18,13.9,-0.3,0.79,Graduate
1,44,1,9070,1,39,120,1,Higher,Basic,120,0,0,0,1,1,0,20,16.2,0.3,-0.92,Graduate
1,1,1,9500,1,1,136,1,Secondary,Basic,131.5,0,0,0,1,0,1,20,11.1,0.6,2.02,Graduate
1,1,3,9119,1,1,113,1,Higher,Basic,107.4,1,0,0,1,1,0,18,8.9,1.4,3.51,Graduate
2,39,1,8014,0,19,133.1,1,Basic,Basic,107,0,0,0,1,1,0,41,12.7,3.7,-1.7,Graduate
1,17,2,9773,1,1,126,1,Basic,Basic,118.7,1,0,0,1,0,1,18,12.4,0.5,1.79,Graduate
1,1,1,9130,1,1,160,1,Higher,Higher,149.2,0,0,0,1,1,0,18,7.6,2.6,0.32,Graduate
1,1,1,9500,1,1,131,1,Secondary,Basic,127,0,0,0,1,1,1,19,12.7,3.7,-1.7,Graduate
1,1,1,9500,1,1,118,1,Basic,Basic,115.2,1,0,0,1,0,0,19,11.1,0.6,2.02,Graduate
1,1,1,9238,1,1,133.1,1,Secondary,Secondary,102,1,0,0,1,0,1,20,11.1,0.6,2.02,Graduate
1,1,1,9070,1,1,138,1,Basic,Basic,133.1,0,0,0,1,1,0,18,8.9,1.4,3.51,Graduate
1,43,4,9500,1,6,118.9,1,Basic,Basic,118.9,1,0,0,1,0,1,19,7.6,2.6,0.32,Graduate
1,44,1,9003,1,39,140,1,Secondary,Basic,140,0,0,0,1,1,0,20,12.4,0.5,1.79,Graduate
1,16,6,9773,1,1,136,1,Basic,Secondary,129.7,1,0,0,1,0,0,21,7.6,2.6,0.32,Graduate
1,1,1,9500,1,1,135,1,Higher,Secondary,126.6,0,0,0,1,0,1,19,11.1,0.6,2.02,Graduate
1,1,3,9500,1,1,119,1,Basic,Basic,119.4,1,0,0,1,0,0,20,12.4,0.5,1.79,Graduate
1,17,1,171,1,1,135,1,Basic,Secondary,131.9,1,0,0,1,1,0,19,8.9,1.4,3.51,Graduate
1,1,1,9238,1,1,154,1,Basic,Basic,156.5,1,1,0,1,0,1,18,12.7,3.7,-1.7,Graduate
1,1,1,9670,1,1,126,1,Secondary,Secondary,126.7,1,0,0,1,0,1,20,8.9,1.4,3.51,Graduate
1,17,2,9670,1,1,128,1,Basic,Basic,121.7,0,0,0,1,1,1,20,9.4,-0.8,-3.12,Graduate
1,17,1,9254,1,1,125,1,Secondary,Basic,116.6,0,0,0,1,1,1,19,16.2,0.3,-0.92,Graduate
1,2,1,9147,1,1,150,1,Basic,Basic,122,1,0,0,1,0,0,29,9.4,-0.8,-3.12,Graduate
1,17,2,9254,1,1,124,41,Basic,Basic,123.3,1,0,0,1,0,0,22,13.9,-0.3,0.79,Graduate
1,42,1,9085,1,39,150,1,Secondary,Secondary,150,1,0,0,1,0,0,26,15.5,2.8,-4.06,Graduate
1,17,3,9773,1,1,123,1,Secondary,Basic,117.4,1,0,0,1,0,1,18,16.2,0.3,-0.92,Graduate
1,17,2,9500,1,1,127,1,Basic,Basic,121.3,1,0,0,1,0,1,20,10.8,1.4,1.74,Graduate
1,1,2,9773,1,1,140,1,Secondary,Secondary,131.6,0,0,0,1,1,1,18,16.2,0.3,-0.92,Graduate
1,18,1,9238,1,1,122,1,Secondary,Higher,112.6,1,0,0,1,1,0,21,12.7,3.7,-1.7,Graduate
1,17,4,9254,1,1,125,1,Basic,Basic,115.6,1,0,0,1,0,0,20,9.4,-0.8,-3.12,Graduate
1,17,1,9500,1,1,157,1,Basic,Higher,138.8,0,0,0,1,1,0,18,12.7,3.7,-1.7,Graduate
1,1,1,9500,1,1,148,1,Secondary,Secondary,137.5,0,0,0,1,1,0,18,16.2,0.3,-0.92,Graduate
1,17,2,9773,1,1,148,1,Higher,Basic,144.2,1,0,0,1,0,0,18,12.4,0.5,1.79,Graduate
1,1,3,171,1,1,122,1,Secondary,Secondary,120.3,0,0,0,1,0,1,21,11.1,0.6,2.02,Graduate
1,1,1,9238,1,1,133.1,1,Basic,Basic,118,0,0,1,1,0,1,20,8.9,1.4,3.51,Graduate
1,1,1,9070,1,1,133.1,1,Secondary,Secondary,155,0,0,0,1,0,1,21,16.2,0.3,-0.92,Graduate
1,1,1,9085,1,1,120,1,Basic,Basic,111.6,1,0,0,1,0,0,19,16.2,0.3,-0.92,Graduate
1,17,1,171,1,1,114,1,Basic,Basic,129.1,0,0,0,1,1,1,23,9.4,-0.8,-3.12,Graduate
1,1,5,9773,1,1,138,1,Basic,Basic,139.4,1,0,0,1,0,0,18,10.8,1.4,1.74,Graduate
1,43,2,9556,1,1,120,1,Secondary,Basic,110.2,0,0,0,1,0,0,27,10.8,1.4,1.74,Graduate
4,39,1,8014,0,19,140,1,Basic,Basic,131,0,0,0,1,0,1,29,10.8,1.4,1.74,Graduate
1,42,1,9254,1,1,154,1,Basic,Basic,154,1,0,0,1,0,0,28,9.4,-0.8,-3.12,Graduate
1,18,1,9238,1,1,122,1,Basic,Basic,114.7,0,0,1,1,0,1,18,11.1,0.6,2.02,Graduate
1,43,2,9238,1,1,133.1,1,Basic,Basic,120.6,1,0,0,1,0,0,24,16.2,0.3,-0.92,Graduate
1,43,1,8014,0,3,133.1,1,Secondary,Secondary,130,0,0,0,1,0,0,26,7.6,2.6,0.32,Graduate
2,39,2,8014,0,19,100,1,Basic,Basic,100,0,0,1,1,0,0,37,7.6,2.6,0.32,Graduate
1,1,3,9500,1,1,133.1,1,Basic,Basic,115.5,1,0,0,1,1,1,20,10.8,1.4,1.74,Graduate
1,17,2,9238,1,1,133,1,Basic,Basic,119.7,0,1,0,1,0,1,18,15.5,2.8,-4.06,Graduate
1,1,1,9238,1,1,160,1,Basic,Basic,152,0,0,0,1,1,1,19,13.9,-0.3,0.79,Graduate
1,1,2,9773,1,1,148,1,Secondary,Basic,141.7,0,0,0,1,0,0,18,10.8,1.4,1.74,Graduate
1,1,3,9500,1,1,141,1,Basic,Basic,131.7,1,0,0,1,0,1,19,15.5,2.8,-4.06,Graduate
1,18,2,8014,0,1,117,1,Higher,Secondary,111.8,1,0,0,1,0,1,19,10.8,1.4,1.74,Graduate
1,1,1,9070,1,1,150,1,Basic,Basic,131.1,0,0,0,1,0,1,19,15.5,2.8,-4.06,Graduate
1,1,4,9238,1,1,123,1,Basic,Secondary,129,1,0,0,1,0,0,19,10.8,1.4,1.74,Graduate
1,1,1,9500,1,1,143,1,Basic,Basic,138.8,1,0,0,1,0,0,31,11.1,0.6,2.02,Graduate
1,1,4,9500,1,1,148,1,Basic,Basic,137,1,0,0,1,0,0,18,9.4,-0.8,-3.12,Graduate
1,17,1,9238,1,1,128,1,Basic,Basic,116.5,0,0,0,1,0,1,18,12.4,0.5,1.79,Graduate
1,1,1,9238,1,1,150,1,Basic,Basic,142.7,1,0,0,1,0,1,18,9.4,-0.8,-3.12,Graduate
1,18,6,9500,1,1,140,1,Higher,Basic,129,1,0,0,1,0,0,21,12.7,3.7,-1.7,Graduate
1,39,1,9085,1,40,130,1,Higher,Higher,160,1,0,0,1,0,0,27,13.9,-0.3,0.79,Graduate
1,1,1,9670,1,1,135,1,Basic,Basic,121.4,0,0,0,1,1,0,21,9.4,-0.8,-3.12,Graduate
1,1,1,9670,1,1,115,1,Secondary,Secondary,108,1,0,0,1,0,1,20,12.4,0.5,1.79,Graduate
1,1,2,9500,1,1,120,1,Higher,Basic,115.1,1,0,0,1,0,1,19,12.4,0.5,1.79,Graduate
2,7,1,8014,0,3,110,1,Basic,Basic,110,0,0,0,1,0,0,39,16.2,0.3,-0.92,Graduate
1,1,1,171,1,1,145,1,Higher,Secondary,160.1,0,0,0,1,0,1,19,8.9,1.4,3.51,Graduate
1,17,2,9500,1,1,138,1,Secondary,Basic,132.8,1,0,0,1,0,0,18,13.9,-0.3,0.79,Graduate
1,17,1,8014,0,1,120,1,Basic,Basic,113,0,0,0,1,0,1,24,10.8,1.4,1.74,Graduate
1,1,1,171,1,1,110,1,Higher,Higher,117,1,0,0,1,1,0,21,9.4,-0.8,-3.12,Graduate
1,1,4,9500,1,1,129,1,Basic,Basic,117.1,1,0,0,1,0,0,30,12.4,0.5,1.79,Graduate
1,39,2,9670,1,1,140,1,Unknown,Unknown,100,0,0,0,1,0,0,28,7.6,2.6,0.32,Graduate
1,1,3,9500,1,1,150,1,Basic,Basic,132.8,1,0,0,1,0,1,18,9.4,-0.8,-3.12,Graduate
1,17,2,9670,1,1,110,1,Higher,Higher,115.6,1,0,0,1,1,0,21,11.1,0.6,2.02,Graduate
1,17,1,9500,1,1,140,1,Basic,Basic,136.5,1,0,0,1,0,1,18,12.4,0.5,1.79,Graduate
1,1,2,9500,1,1,130,1,Secondary,Secondary,125.1,1,0,0,1,0,0,18,15.5,2.8,-4.06,Graduate
1,1,3,9773,1,1,143,11,Basic,Basic,133.9,1,0,0,1,1,1,18,16.2,0.3,-0.92,Graduate
1,1,1,9853,1,1,130,1,Basic,Basic,131.8,0,0,0,1,0,0,18,11.1,0.6,2.02,Graduate
1,1,4,9773,1,1,155,1,Higher,Basic,149.8,1,0,0,1,0,1,18,16.2,0.3,-0.92,Graduate
1,1,6,9500,1,1,143,1,Basic,Basic,127,1,0,0,1,0,1,18,12.7,3.7,-1.7,Graduate
1,1,2,9500,1,1,126,1,Secondary,Basic,124.3,1,0,0,1,0,1,20,9.4,-0.8,-3.12,Graduate
1,1,6,9500,1,1,145,1,Basic,Basic,127.5,1,0,0,1,0,1,19,7.6,2.6,0.32,Graduate
1,44,1,9003,1,39,130,1,Secondary,Basic,130,1,0,0,1,1,0,19,12.4,0.5,1.79,Graduate
2,39,1,9991,0,1,110,1,Basic,Basic,160,0,0,0,1,0,0,44,15.5,2.8,-4.06,Graduate
1,1,1,9500,1,1,121,1,Secondary,Secondary,114.9,0,0,0,1,1,1,21,12.4,0.5,1.79,Graduate
1,17,1,9085,1,1,133.1,1,Basic,Basic,99,1,0,0,1,0,1,23,8.9,1.4,3.51,Graduate
1,39,1,8014,0,40,140,1,Basic,Basic,148,0,0,0,1,0,0,37,12.4,0.5,1.79,Graduate
1,1,6,9500,1,1,149,1,Secondary,Secondary,133,1,0,0,1,0,1,18,12.7,3.7,-1.7,Graduate
1,17,2,9070,1,1,121,1,Secondary,Basic,111.9,1,0,0,1,1,0,19,8.9,1.4,3.51,Graduate
1,17,1,9238,1,1,116,1,Secondary,Secondary,119.2,1,0,0,1,0,1,18,8.9,1.4,3.51,Graduate
1,1,1,9500,1,1,148,1,Basic,Basic,134.8,1,0,0,1,1,0,18,7.6,2.6,0.32,Graduate
1,17,5,9119,1,1,118,1,Secondary,Basic,120.5,1,0,0,1,1,0,20,12.4,0.5,1.79,Graduate
4,43,1,9500,1,19,100,1,Unknown,Unknown,110,0,0,0,1,1,0,30,7.6,2.6,0.32,Graduate
1,1,6,9500,1,1,140,1,Basic,Basic,128.5,1,0,0,1,0,1,18,9.4,-0.8,-3.12,Graduate
1,44,1,9670,1,39,110,1,Basic,Secondary,110,0,0,0,1,0,1,20,11.1,0.6,2.02,Graduate
1,1,1,9238,1,1,133.1,1,Basic,Basic,108,0,0,0,1,0,1,20,16.2,0.3,-0.92,Graduate
1,1,1,9003,1,1,148,1,Basic,Basic,131.6,1,0,0,1,1,0,19,15.5,2.8,-4.06,Graduate
2,44,1,9085,1,39,160,1,Basic,Basic,160,0,0,0,1,0,0,27,9.4,-0.8,-3.12,Graduate
1,1,2,9254,1,1,127,1,Higher,Basic,130.9,1,0,0,1,0,0,18,9.4,-0.8,-3.12,Graduate
1,42,1,9085,1,39,140,1,Basic,Higher,159.9,1,0,0,1,0,0,21,16.2,0.3,-0.92,Graduate
1,1,2,9085,1,1,148,1,Basic,Basic,134.7,1,0,0,1,0,0,18,8.9,1.4,3.51,Graduate
1,17,1,9238,1,1,132,1,Secondary,Basic,127.1,1,0,0,1,0,0,19,13.9,-0.3,0.79,Graduate
1,1,1,171,1,1,138,1,Secondary,Higher,149.9,1,0,0,1,0,0,20,11.1,0.6,2.02,Graduate
1,1,1,9991,0,1,172,1,Basic,Basic,149.3,0,0,0,1,1,1,24,8.9,1.4,3.51,Graduate
1,1,1,9500,1,1,136,1,Secondary,Secondary,123.8,0,0,0,1,0,0,19,13.9,-0.3,0.79,Graduate
1,44,1,9003,1,39,140,1,Higher,Secondary,140,0,0,0,1,1,0,21,13.9,-0.3,0.79,Graduate
1,39,1,9003,1,1,140,1,Basic,Basic,150,0,0,1,1,0,0,34,16.2,0.3,-0.92,Graduate
1,1,3,9773,1,1,135,1,Basic,Basic,133.3,1,0,0,1,0,1,18,8.9,1.4,3.51,Graduate
1,10,1,9085,1,1,140,1,Basic,Basic,140,1,0,0,1,0,0,21,10.8,1.4,1.74,Graduate
1,1,1,171,1,3,116,1,Higher,Higher,128.2,0,0,0,1,0,0,22,11.1,0.6,2.02,Graduate
1,1,1,9500,1,1,125,1,Basic,Basic,126,1,0,1,1,0,0,20,7.6,2.6,0.32,Graduate
1,1,2,9070,1,1,164,1,Basic,Basic,165.8,1,0,0,1,0,0,18,9.4,-0.8,-3.12,Graduate
1,1,1,9500,1,1,143,1,Higher,Basic,126.8,0,0,0,1,1,0,19,10.8,1.4,1.74,Graduate
1,1,2,9238,1,1,100,1,Basic,Secondary,99.3,1,0,0,1,0,0,21,12.4,0.5,1.79,Graduate
1,1,3,9500,1,1,129,1,Basic,Basic,127.3,1,0,0,1,0,1,20,7.6,2.6,0.32,Graduate
1,1,1,9500,1,1,154,1,Secondary,Secondary,144.9,0,0,0,1,1,1,18,16.2,0.3,-0.92,Graduate
1,1,1,9500,1,1,162,1,Higher,Higher,154.1,0,0,0,1,0,0,18,11.1,0.6,2.02,Graduate
1,18,2,9238,1,1,126,1,Basic,Basic,129.9,1,0,0,1,1,1,20,10.8,1.4,1.74,Graduate
1,44,1,8014,0,39,140,1,Secondary,Higher,139.2,0,0,1,1,0,0,20,12.4,0.5,1.79,Graduate
1,1,1,9130,1,1,133,1,Secondary,Basic,123.2,1,0,0,1,0,1,19,8.9,1.4,3.51,Graduate
1,17,2,9853,1,1,123,1,Secondary,Secondary,116.7,1,0,0,1,0,0,19,9.4,-0.8,-3.12,Graduate
1,1,3,171,1,1,140,1,Basic,Basic,124.3,1,0,0,1,1,0,18,7.6,2.6,0.32,Graduate
1,1,1,9773,1,1,142,1,Basic,Basic,141.3,0,0,0,1,0,1,19,13.9,-0.3,0.79,Graduate
1,1,1,9070,1,1,143,1,Basic,Basic,134.3,1,1,0,1,0,0,19,8.9,1.4,3.51,Graduate
1,1,6,9500,1,1,143,1,Basic,Basic,129.5,1,0,0,1,0,1,18,10.8,1.4,1.74,Graduate
1,18,1,9670,1,1,140,1,Secondary,Basic,130.2,1,0,0,1,1,0,22,12.7,3.7,-1.7,Graduate
1,39,1,9003,1,1,140,1,Higher,Secondary,130,0,0,0,1,1,0,27,11.1,0.6,2.02,Graduate
1,17,4,9670,1,1,110,1,Secondary,Basic,111.1,1,0,0,0,0,0,18,8.9,1.4,3.51,Graduate
1,1,1,9773,1,1,137,1,Secondary,Secondary,129.3,1,0,0,1,1,0,18,12.7,3.7,-1.7,Graduate
1,43,1,9853,1,1,140,1,Basic,Basic,125.2,0,0,1,1,0,0,41,12.4,0.5,1.79,Graduate
1,1,3,9773,1,1,135,1,Higher,Secondary,129.8,1,0,0,1,1,0,20,15.5,2.8,-4.06,Graduate
1,43,1,9500,1,1,140,1,Secondary,Basic,100,0,0,0,1,0,1,18,13.9,-0.3,0.79,Graduate
1,44,1,9085,1,1,140,1,Higher,Higher,140,0,0,0,1,0,0,22,13.9,-0.3,0.79,Graduate
1,1,2,9670,1,1,144,1,Basic,Basic,126.9,0,0,0,1,0,1,21,9.4,-0.8,-3.12,Graduate
1,1,3,9500,1,1,126,1,Basic,Basic,118.8,1,0,0,1,0,1,19,12.7,3.7,-1.7,Graduate
1,17,3,9500,1,1,132,1,Basic,Basic,128.3,1,0,0,1,0,1,19,15.5,2.8,-4.06,Graduate
1,1,1,9254,1,1,145,1,Higher,Basic,134.9,1,0,0,1,0,0,18,12.4,0.5,1.79,Graduate
2,43,1,9991,0,1,140,1,Basic,Basic,122.7,0,0,0,1,1,0,38,13.9,-0.3,0.79,Graduate
1,1,4,9773,1,1,122,1,Basic,Basic,121,1,0,0,1,0,0,20,13.9,-0.3,0.79,Graduate
1,1,1,9085,1,1,130,1,Basic,Basic,126.5,1,0,0,1,0,1,18,15.5,2.8,-4.06,Graduate
1,16,2,171,1,1,145,1,Higher,Higher,143.6,1,0,0,1,1,0,18,12.4,0.5,1.79,Graduate
2,39,1,9991,0,1,160,1,Secondary,Secondary,128.4,0,0,0,1,0,0,34,12.4,0.5,1.79,Graduate
1,1,1,9773,1,1,125,1,Basic,Basic,133.4,1,0,0,1,1,1,20,13.9,-0.3,0.79,Graduate
1,1,1,9500,1,1,143,1,Higher,Secondary,136.7,0,0,0,1,0,0,19,11.1,0.6,2.02,Graduate
2,39,1,8014,0,1,133.1,1,Basic,Basic,113.5,0,0,0,1,0,1,50,12.7,3.7,-1.7,Graduate
1,1,1,9254,1,1,131,2,Basic,Secondary,126.1,1,0,0,1,1,0,18,7.6,2.6,0.32,Graduate
1,18,1,171,1,1,110,1,Basic,Higher,117.7,1,0,1,1,1,1,20,12.4,0.5,1.79,Graduate
1,17,6,9500,1,1,136,1,Basic,Basic,132.5,1,0,0,1,0,0,19,12.7,3.7,-1.7,Graduate
2,39,1,9003,1,1,133.1,1,Basic,Basic,150,0,0,0,1,1,0,31,13.9,-0.3,0.79,Graduate
1,43,2,9238,1,1,118,1,Basic,Basic,110,0,0,0,1,0,1,19,10.8,1.4,1.74,Graduate
1,1,2,9500,1,1,134,1,Secondary,Secondary,128.4,1,0,0,1,0,0,18,16.2,0.3,-0.92,Graduate
1,1,1,9500,1,1,153,1,Basic,Basic,147.9,0,0,0,1,0,1,18,12.4,0.5,1.79,Graduate
1,17,4,9500,1,1,129,1,Basic,Basic,120,1,0,0,1,0,0,19,10.8,1.4,1.74,Graduate
1,1,1,9238,1,1,115,1,Basic,Basic,108.7,0,0,0,1,0,1,19,15.5,2.8,-4.06,Graduate
1,1,1,9238,1,1,141,1,Basic,Basic,125.6,1,0,0,1,0,1,18,9.4,-0.8,-3.12,Graduate
1,1,1,9500,1,1,131,1,Secondary,Secondary,122,0,0,0,1,0,0,19,12.7,3.7,-1.7,Graduate
1,1,2,9773,1,1,116,1,Basic,Basic,110.1,1,0,0,1,0,0,18,11.1,0.6,2.02,Graduate
1,1,5,9238,1,1,126,1,Basic,Secondary,125.7,1,0,0,1,0,1,19,9.4,-0.8,-3.12,Graduate
1,17,2,9238,1,1,115,1,Basic,Basic,116.4,1,0,0,1,0,0,21,16.2,0.3,-0.92,Graduate
1,17,2,9773,1,1,121,1,Secondary,Secondary,123.1,1,0,0,1,1,0,20,9.4,-0.8,-3.12,Graduate
1,1,2,9254,1,1,140,1,Secondary,Basic,123.6,1,0,0,1,0,0,18,12.7,3.7,-1.7,Graduate
1,17,1,9254,1,1,125,1,Basic,Basic,118,1,0,0,1,0,1,19,9.4,-0.8,-3.12,Graduate
1,7,1,9991,0,40,120,1,Basic,Basic,120,0,0,0,1,0,0,32,12.4,0.5,1.79,Graduate
1,1,1,9130,1,1,134,41,Secondary,Basic,125.6,1,0,0,1,0,0,20,12.7,3.7,-1.7,Graduate
1,1,1,9147,1,1,135,1,Secondary,Basic,122.4,0,0,1,1,0,0,19,13.9,-0.3,0.79,Graduate
1,43,1,9500,1,1,130,1,Secondary,Secondary,136,1,0,0,1,1,0,22,9.4,-0.8,-3.12,Graduate
1,17,4,9119,1,1,133,1,Higher,Secondary,123.2,1,0,0,1,1,0,18,8.9,1.4,3.51,Graduate
2,39,1,9991,0,1,170,1,Basic,Basic,134.7,0,0,0,1,0,0,33,10.8,1.4,1.74,Graduate
2,1,1,9254,1,1,140,1,Basic,Basic,133,0,0,0,1,1,0,33,12.7,3.7,-1.7,Graduate
2,43,1,9991,0,1,140,1,Basic,Basic,130,1,0,0,1,1,0,30,9.4,-0.8,-3.12,Graduate
1,17,2,8014,0,1,122,1,Basic,Basic,123.8,0,0,0,1,0,0,20,10.8,1.4,1.74,Graduate
2,39,1,9130,1,19,133.1,1,Basic,Basic,120,0,0,0,1,1,0,53,9.4,-0.8,-3.12,Graduate
1,17,1,9085,1,1,128,1,Basic,Basic,117.2,0,0,0,1,1,0,20,12.7,3.7,-1.7,Graduate
1,39,1,9147,1,1,160,1,Basic,Basic,121.4,0,1,0,1,0,1,26,16.2,0.3,-0.92,Graduate
1,1,4,9147,1,1,126,1,Secondary,Basic,120.1,1,0,0,1,0,0,19,8.9,1.4,3.51,Graduate
1,10,1,9670,1,1,148.9,22,Basic,Basic,148.9,0,0,0,1,0,0,20,9.4,-0.8,-3.12,Graduate
1,17,4,9500,1,1,150,1,Basic,Basic,130.8,0,0,0,1,1,1,22,16.2,0.3,-0.92,Graduate
1,1,1,9238,1,1,138,1,Basic,Basic,133.5,0,0,0,1,0,1,19,8.9,1.4,3.51,Graduate
1,1,2,9147,1,1,108,1,Secondary,Basic,105.9,1,0,0,1,1,0,21,11.1,0.6,2.02,Graduate
1,17,4,9070,1,1,160,1,Secondary,Basic,155.5,1,0,0,1,0,0,18,11.1,0.6,2.02,Graduate
1,1,2,9500,1,1,147,1,Higher,Secondary,136.7,0,0,0,1,0,0,18,11.1,0.6,2.02,Graduate
1,39,1,9773,1,19,133.1,1,Basic,Basic,104,0,0,1,0,0,1,24,11.1,0.6,2.02,Graduate
1,1,3,9254,1,1,118,1,Secondary,Basic,111.7,1,0,0,1,0,0,19,12.4,0.5,1.79,Graduate
1,17,5,9773,1,1,143,1,Secondary,Secondary,136.7,1,0,0,1,0,0,18,8.9,1.4,3.51,Graduate
1,1,1,9238,1,1,160,1,Basic,Basic,155.5,1,0,0,1,0,1,18,10.8,1.4,1.74,Graduate
1,1,4,9085,1,1,138,1,Higher,Secondary,123.3,1,0,0,1,0,1,19,12.4,0.5,1.79,Graduate
1,1,4,9500,1,1,132,1,Basic,Basic,118,1,0,0,1,0,0,18,12.7,3.7,-1.7,Graduate
1,1,1,9500,1,1,140,1,Basic,Basic,124.3,1,0,0,1,0,1,18,16.2,0.3,-0.92,Graduate
2,39,1,8014,0,1,133.1,1,Basic,Basic,162.5,0,0,0,1,1,0,54,8.9,1.4,3.51,Graduate
1,1,4,9500,1,1,139,1,Basic,Basic,124,1,0,0,1,1,1,18,10.8,1.4,1.74,Graduate
1,17,5,9254,1,1,121,1,Secondary,Basic,116.5,1,0,0,0,1,0,18,9.4,-0.8,-3.12,Dropout_Enrolled
2,42,1,9991,0,1,130,1,Higher,Higher,130,0,0,0,1,1,0,27,12.7,3.7,-1.7,Dropout_Enrolled
1,43,3,171,1,1,140,1,Basic,Basic,143.4,1,0,0,1,0,0,21,9.4,-0.8,-3.12,Dropout_Enrolled
1,1,1,9500,1,1,131,1,Basic,Basic,122,1,0,0,1,0,0,20,12.7,3.7,-1.7,Dropout_Enrolled
2,39,1,8014,0,1,140,1,Basic,Higher,172,0,0,0,1,1,0,44,12.4,0.5,1.79,Dropout_Enrolled
1,17,1,171,1,1,140,41,Secondary,Secondary,146.3,1,0,0,1,0,1,18,12.7,3.7,-1.7,Dropout_Enrolled
1,1,1,9130,1,1,140,1,Secondary,Basic,131.2,0,0,0,1,1,1,26,7.6,2.6,0.32,Dropout_Enrolled
1,39,1,9003,1,19,133.1,1,Basic,Basic,134.3,0,0,0,1,1,0,25,12.4,0.5,1.79,Dropout_Enrolled
1,1,6,9500,1,1,120,41,Secondary,Secondary,114.8,1,0,0,1,0,0,21,11.1,0.6,2.02,Dropout_Enrolled
1,17,1,9670,1,1,118,1,Basic,Basic,115.2,1,0,0,1,0,1,21,7.6,2.6,0.32,Dropout_Enrolled
1,17,4,9670,1,1,126,1,Secondary,Secondary,115.2,0,0,0,0,0,0,19,10.8,1.4,1.74,Dropout_Enrolled
1,17,3,9119,1,1,135,1,Secondary,Basic,121.7,1,0,0,1,1,0,18,8.9,1.4,3.51,Dropout_Enrolled
1,17,1,9130,1,1,125,1,Basic,Basic,131,1,0,0,1,1,0,19,10.8,1.4,1.74,Dropout_Enrolled
1,1,3,9500,1,1,140,1,Basic,Basic,141.5,1,0,1,0,0,0,19,10.8,1.4,1.74,Dropout_Enrolled
1,17,1,9147,1,1,116,1,Basic,Higher,112.2,1,0,0,1,0,0,20,10.8,1.4,1.74,Dropout_Enrolled
1,17,4,9070,1,1,128,1,Secondary,Secondary,136.1,1,0,1,0,1,0,19,11.1,0.6,2.02,Dropout_Enrolled
1,39,1,9003,1,1,160,1,Secondary,Basic,168.6,0,0,0,1,1,0,26,13.9,-0.3,0.79,Dropout_Enrolled
1,1,1,9853,1,1,133.1,1,Unknown,Unknown,142.8,0,0,0,1,1,0,20,7.6,2.6,0.32,Dropout_Enrolled
1,1,1,9670,1,1,95,1,Basic,Basic,95,0,0,0,0,1,0,21,12.7,3.7,-1.7,Dropout_Enrolled
1,17,2,9853,1,1,126,1,Secondary,Basic,126,1,0,0,1,0,0,19,7.6,2.6,0.32,Dropout_Enrolled
1,1,1,9130,1,1,143,1,Higher,Higher,141.3,0,0,1,0,0,0,23,11.1,0.6,2.02,Dropout_Enrolled
1,1,1,9085,1,1,126,1,Higher,Secondary,123.9,1,0,0,1,0,0,19,12.4,0.5,1.79,Dropout_Enrolled
1,1,1,9853,1,1,121,1,Basic,Basic,116.8,1,0,0,1,0,0,18,9.4,-0.8,-3.12,Dropout_Enrolled
1,39,1,9991,0,1,100,1,Basic,Basic,140,0,0,0,1,1,0,39,15.5,2.8,-4.06,Dropout_Enrolled
2,43,2,9853,1,1,130,1,Basic,Secondary,124.2,0,0,0,1,0,0,31,9.4,-0.8,-3.12,Dropout_Enrolled
1,1,3,9500,1,1,130,1,Higher,Secondary,133.8,0,0,0,1,0,0,19,7.6,2.6,0.32,Dropout_Enrolled
1,5,3,9085,1,1,143,1,Basic,Basic,159.1,0,0,1,1,0,1,18,7.6,2.6,0.32,Dropout_Enrolled
1,39,1,9085,1,43,160,1,Higher,Secondary,172,0,0,0,1,0,0,26,8.9,1.4,3.51,Dropout_Enrolled
1,1,1,9147,1,1,127,1,Basic,Basic,129.8,1,0,0,1,0,0,22,7.6,2.6,0.32,Dropout_Enrolled
1,39,2,9670,1,1,150,1,Unknown,Unknown,107,1,0,0,1,1,0,26,7.6,2.6,0.32,Dropout_Enrolled
1,1,2,9773,1,1,130,109,Basic,Secondary,126.9,1,0,0,1,0,1,19,11.1,0.6,2.02,Dropout_Enrolled
1,17,2,171,1,1,137,1,Secondary,Secondary,143.3,1,0,0,1,0,0,18,9.4,-0.8,-3.12,Dropout_Enrolled
1,17,6,9147,1,1,130,1,Basic,Basic,110.4,1,0,0,1,1,0,25,7.6,2.6,0.32,Dropout_Enrolled
2,39,1,8014,0,19,133.1,1,Unknown,Unknown,130,0,0,0,1,1,0,38,9.4,-0.8,-3.12,Dropout_Enrolled
1,43,1,9991,0,1,120,1,Basic,Basic,122.5,1,0,0,1,0,0,29,9.4,-0.8,-3.12,Dropout_Enrolled
1,17,2,9500,1,1,127,1,Higher,Higher,118.8,1,0,0,1,1,0,19,16.2,0.3,-0.92,Dropout_Enrolled
1,1,2,9773,1,1,116,1,Secondary,Basic,127.6,1,0,0,1,0,1,19,13.9,-0.3,0.79,Dropout_Enrolled
1,51,1,9670,1,19,133.1,1,Higher,Secondary,120,0,0,1,1,1,0,32,11.1,0.6,2.02,Dropout_Enrolled
1,1,1,9238,1,1,125,1,Secondary,Secondary,128.5,0,0,0,1,1,0,20,16.2,0.3,-0.92,Dropout_Enrolled
1,1,1,9500,1,1,141,1,Higher,Secondary,124.3,0,0,0,1,0,0,19,12.7,3.7,-1.7,Dropout_Enrolled
1,44,1,171,1,39,160,1,Basic,Basic,160,1,0,1,1,1,1,21,15.5,2.8,-4.06,Dropout_Enrolled
2,39,1,9991,0,1,162,1,Basic,Basic,132,0,0,1,1,1,0,25,7.6,2.6,0.32,Dropout_Enrolled
1,17,1,9130,1,1,138,1,Higher,Basic,126.3,1,0,0,1,0,1,18,8.9,1.4,3.51,Dropout_Enrolled
1,39,1,9670,1,12,133.1,1,Basic,Secondary,120,0,0,1,0,1,0,40,15.5,2.8,-4.06,Dropout_Enrolled
1,1,1,171,1,1,159,1,Higher,Secondary,162.2,1,0,1,0,0,0,18,12.4,0.5,1.79,Dropout_Enrolled
1,17,2,9853,1,1,123,1,Higher,Secondary,124.1,1,0,0,1,0,0,18,15.5,2.8,-4.06,Dropout_Enrolled
1,1,1,9130,1,1,117,1,Secondary,Secondary,109.3,1,0,0,1,0,0,20,12.7,3.7,-1.7,Dropout_Enrolled
1,44,1,9130,1,39,140,1,Higher,Higher,140,1,0,0,1,1,0,20,12.7,3.7,-1.7,Dropout_Enrolled
1,17,2,8014,0,1,133,1,Basic,Secondary,119.7,1,0,0,1,0,1,19,9.4,-0.8,-3.12,Dropout_Enrolled
4,39,1,9085,1,1,140,1,Basic,Basic,154.6,0,0,0,0,0,1,44,8.9,1.4,3.51,Dropout_Enrolled
1,39,1,9853,1,19,133.1,1,Basic,Higher,116,1,0,0,1,0,0,29,11.1,0.6,2.02,Dropout_Enrolled
2,39,1,9500,1,19,133.1,1,Basic,Basic,100.5,1,0,0,1,1,0,43,10.8,1.4,1.74,Dropout_Enrolled
1,1,1,9556,1,1,135,1,Secondary,Secondary,131.5,0,0,0,1,1,1,21,16.2,0.3,-0.92,Dropout_Enrolled
1,39,1,9130,1,1,150,1,Secondary,Secondary,110,0,0,1,1,1,0,24,9.4,-0.8,-3.12,Dropout_Enrolled
2,39,2,9147,1,1,140,1,Basic,Basic,108,0,0,0,1,0,0,50,9.4,-0.8,-3.12,Dropout_Enrolled
1,43,1,9991,0,1,140,1,Basic,Basic,135.5,0,0,1,0,0,0,29,16.2,0.3,-0.92,Dropout_Enrolled
1,43,1,9991,0,1,120,1,Basic,Basic,128.2,0,0,0,0,1,0,32,10.8,1.4,1.74,Dropout_Enrolled
1,43,1,171,1,1,133,1,Basic,Basic,133,0,0,0,1,0,0,18,15.5,2.8,-4.06,Dropout_Enrolled
1,18,1,9991,0,1,112,1,Higher,Higher,106.4,0,0,0,1,1,0,22,8.9,1.4,3.51,Dropout_Enrolled
1,17,6,9670,1,1,117,1,Basic,Basic,114.6,0,0,0,0,1,0,19,10.8,1.4,1.74,Dropout_Enrolled
2,7,1,9130,1,3,120,1,Higher,Higher,128.2,0,0,0,1,0,0,33,9.4,-0.8,-3.12,Dropout_Enrolled
1,1,2,9254,1,1,110,1,Higher,Basic,114.8,1,0,0,0,1,0,18,12.7,3.7,-1.7,Dropout_Enrolled
1,1,3,9070,1,1,128,1,Basic,Basic,129.8,1,0,0,1,0,0,20,9.4,-0.8,-3.12,Dropout_Enrolled
1,1,4,171,1,1,139,1,Basic,Basic,127.8,1,0,0,1,0,0,19,10.8,1.4,1.74,Dropout_Enrolled
1,44,1,9130,1,39,130,1,Higher,Secondary,130,1,0,1,1,1,0,20,12.4,0.5,1.79,Dropout_Enrolled
1,39,1,8014,0,1,133.1,1,Basic,Basic,96,0,0,1,0,1,0,50,12.4,0.5,1.79,Dropout_Enrolled
1,39,1,8014,0,1,155,1,Basic,Basic,117.5,0,0,0,1,0,0,34,12.7,3.7,-1.7,Dropout_Enrolled
1,17,1,9500,1,1,128,1,Secondary,Secondary,124.7,0,0,0,1,1,1,19,15.5,2.8,-4.06,Dropout_Enrolled
1,18,2,9119,1,1,136,1,Secondary,Higher,122.7,1,0,0,1,1,0,18,13.9,-0.3,0.79,Dropout_Enrolled
2,39,1,9991,0,1,110,1,Basic,Basic,130,0,0,0,0,1,0,42,12.7,3.7,-1.7,Dropout_Enrolled
1,42,1,9119,1,1,120,1,Basic,Basic,113.8,0,0,0,0,1,0,27,15.5,2.8,-4.06,Dropout_Enrolled
1,1,1,9670,1,1,133.1,1,Secondary,Basic,139,0,0,0,1,1,0,21,10.8,1.4,1.74,Dropout_Enrolled
1,17,1,9853,1,1,125,1,Higher,Higher,116.6,1,0,0,0,0,1,18,8.9,1.4,3.51,Dropout_Enrolled
1,17,4,9500,1,1,138,1,Higher,Secondary,133,1,0,0,1,0,0,18,9.4,-0.8,-3.12,Dropout_Enrolled
1,17,1,9853,1,1,138,1,Basic,Basic,124.7,1,0,0,1,0,0,18,9.4,-0.8,-3.12,Dropout_Enrolled
1,17,4,9119,1,1,135,1,Basic,Basic,126.6,1,0,0,1,1,0,18,7.6,2.6,0.32,Dropout_Enrolled
1,17,1,9254,1,1,158,1,Basic,Basic,138.1,1,0,0,1,0,0,19,7.6,2.6,0.32,Dropout_Enrolled
2,39,1,9991,0,1,100,1,Basic,Basic,161.9,0,0,0,1,1,0,59,16.2,0.3,-0.92,Dropout_Enrolled
1,1,1,9085,1,1,125,1,Basic,Basic,126.8,0,0,0,1,0,0,18,11.1,0.6,2.02,Dropout_Enrolled
1,39,1,9991,0,1,120,1,Basic,Basic,115,1,0,0,1,1,0,27,12.7,3.7,-1.7,Dropout_Enrolled
1,17,1,9556,1,1,133,1,Secondary,Basic,119,0,0,0,1,0,0,19,12.7,3.7,-1.7,Dropout_Enrolled
1,18,2,9147,1,1,115,1,Secondary,Basic,108.7,1,0,0,1,0,0,21,9.4,-0.8,-3.12,Dropout_Enrolled
1,39,1,9130,1,3,150,1,Higher,Secondary,150,1,0,0,1,0,0,34,12.7,3.7,-1.7,Dropout_Enrolled
1,39,1,9991,0,1,130,1,Basic,Basic,130.1,0,0,0,1,0,0,25,10.8,1.4,1.74,Dropout_Enrolled
1,39,1,9130,1,39,150,1,Secondary,Higher,150,0,0,0,1,1,0,28,16.2,0.3,-0.92,Dropout_Enrolled
4,39,1,8014,0,19,133.1,1,Unknown,Unknown,100,0,0,0,1,0,0,48,9.4,-0.8,-3.12,Dropout_Enrolled
1,1,1,9670,1,1,127,1,Secondary,Basic,128.1,0,0,0,1,1,0,19,7.6,2.6,0.32,Dropout_Enrolled
1,39,1,9130,1,1,133.1,1,Higher,Unknown,120,0,0,1,0,1,0,29,9.4,-0.8,-3.12,Dropout_Enrolled
1,1,2,9254,1,1,125,1,Secondary,Basic,121.5,1,0,0,1,1,0,18,9.4,-0.8,-3.12,Dropout_Enrolled
1,1,3,9147,1,1,124,1,Secondary,Secondary,116.7,1,0,0,1,1,0,19,7.6,2.6,0.32,Dropout_Enrolled
2,39,1,9070,1,19,133.1,1,Basic,Basic,126.3,0,0,0,0,1,0,38,10.8,1.4,1.74,Dropout_Enrolled
2,39,1,9147,1,1,130,1,Basic,Basic,117.9,0,0,0,1,0,0,35,10.8,1.4,1.74,Dropout_Enrolled
1,17,2,9238,1,1,136,1,Secondary,Higher,126.6,1,0,0,1,0,0,18,11.1,0.6,2.02,Dropout_Enrolled
1,1,1,9085,1,1,105,1,Basic,Basic,102.6,0,1,0,1,0,0,21,11.1,0.6,2.02,Dropout_Enrolled
1,39,1,9130,1,1,114,1,Basic,Basic,120,0,0,0,1,0,0,24,11.1,0.6,2.02,Dropout_Enrolled
1,39,1,9085,1,2,140,1,Basic,Basic,150,0,0,0,1,1,0,47,16.2,0.3,-0.92,Dropout_Enrolled
1,17,2,9085,1,1,123,1,Secondary,Basic,113.6,1,0,0,1,0,0,19,9.4,-0.8,-3.12,Dropout_Enrolled
1,7,1,9003,1,3,130,1,Secondary,Basic,130,1,0,0,0,1,0,32,15.5,2.8,-4.06,Dropout_Enrolled
1,1,1,9773,1,1,127,1,Secondary,Basic,121.8,1,0,0,1,0,1,20,9.4,-0.8,-3.12,Dropout_Enrolled
1,17,1,9670,1,1,132,1,Basic,Basic,122.9,0,0,0,0,1,0,20,10.8,1.4,1.74,Dropout_Enrolled
1,44,1,9991,0,39,130,1,Basic,Basic,130,1,0,0,1,1,0,32,9.4,-0.8,-3.12,Dropout_Enrolled
1,1,2,9147,1,1,140,1,Basic,Basic,127.8,1,0,0,1,1,0,23,9.4,-0.8,-3.12,Dropout_Enrolled
1,17,1,9085,1,1,121,1,Basic,Basic,131.5,0,0,0,1,0,0,21,7.6,2.6,0.32,Dropout_Enrolled
1,44,1,9003,1,39,130,1,Higher,Higher,130,0,0,0,1,1,0,20,15.5,2.8,-4.06,Dropout_Enrolled
1,18,1,9085,1,1,153,1,Basic,Basic,138,1,0,0,1,0,1,21,8.9,1.4,3.51,Dropout_Enrolled
1,44,1,9085,1,39,140,1,Secondary,Secondary,140,1,0,1,1,0,0,22,13.9,-0.3,0.79,Dropout_Enrolled
1,1,1,9238,1,1,135,1,Basic,Basic,121,0,0,1,1,0,0,18,7.6,2.6,0.32,Dropout_Enrolled
1,17,1,9119,1,1,130,1,Basic,Basic,121.3,1,0,0,1,1,0,18,7.6,2.6,0.32,Dropout_Enrolled
1,1,1,9147,1,1,150,1,Unknown,Basic,152.8,1,0,0,1,1,1,18,7.6,2.6,0.32,Dropout_Enrolled
2,1,1,9147,1,1,133.1,1,Unknown,Unknown,131.8,0,0,0,1,0,0,24,7.6,2.6,0.32,Dropout_Enrolled
2,39,1,9147,1,1,140,1,Basic,Basic,127.7,1,0,0,1,0,0,31,7.6,2.6,0.32,Dropout_Enrolled
1,17,1,9119,1,1,130,1,Secondary,Higher,123,0,0,0,1,1,0,18,9.4,-0.8,-3.12,Dropout_Enrolled
1,39,1,9500,1,1,120,1,Basic,Basic,100,0,0,0,1,1,0,34,16.2,0.3,-0.92,Dropout_Enrolled
2,39,1,9500,1,1,133.1,1,Basic,Basic,115.2,0,0,0,1,0,0,48,11.1,0.6,2.02,Dropout_Enrolled
1,1,2,9254,1,1,130,1,Secondary,Basic,122.7,1,0,0,1,0,0,18,7.6,2.6,0.32,Dropout_Enrolled
1,17,1,9147,1,1,114,1,Basic,Basic,107.7,0,0,0,1,0,0,19,10.8,1.4,1.74,Dropout_Enrolled
1,7,2,9500,1,3,140,1,Basic,Basic,138,0,0,0,1,1,0,28,16.2,0.3,-0.92,Dropout_Enrolled
1,44,1,9003,1,39,150,1,Higher,Higher,150,0,0,0,1,1,0,21,16.2,0.3,-0.92,Dropout_Enrolled
1,1,1,171,1,1,140,1,Basic,Basic,126.8,1,0,0,0,0,1,18,12.7,3.7,-1.7,Dropout_Enrolled
1,1,3,9670,1,1,120,1,Basic,Basic,111.3,1,0,0,1,1,0,19,9.4,-0.8,-3.12,Dropout_Enrolled
2,39,1,9119,1,1,110,1,Basic,Basic,106.8,0,0,0,1,1,0,34,8.9,1.4,3.51,Dropout_Enrolled
1,5,1,9853,1,1,119,1,Secondary,Basic,118.3,1,0,0,1,0,0,22,9.4,-0.8,-3.12,Dropout_Enrolled
1,17,3,9670,1,1,147,1,Basic,Basic,128.8,0,0,1,1,0,0,19,9.4,-0.8,-3.12,Dropout_Enrolled
1,1,2,9773,1,1,127,1,Secondary,Basic,120.4,1,0,0,1,0,0,18,12.7,3.7,-1.7,Dropout_Enrolled
1,1,1,171,1,1,141,1,Basic,Basic,135.8,1,0,0,1,1,0,19,15.5,2.8,-4.06,Dropout_Enrolled
1,39,1,9119,1,12,133.1,1,Unknown,Unknown,95.1,0,0,0,0,1,0,49,10.8,1.4,1.74,Dropout_Enrolled
1,17,2,9119,1,1,135,1,Secondary,Basic,121,0,0,0,1,1,0,19,12.4,0.5,1.79,Dropout_Enrolled
1,17,5,9119,1,1,138,1,Basic,Basic,123.3,1,0,1,1,1,0,18,12.4,0.5,1.79,Dropout_Enrolled
2,43,1,9991,0,1,140,1,Basic,Basic,100,0,0,0,0,0,0,31,12.7,3.7,-1.7,Dropout_Enrolled
1,53,1,9085,1,42,140,1,Basic,Basic,138.2,0,0,1,0,0,0,21,8.9,1.4,3.51,Dropout_Enrolled
1,1,1,9773,1,1,145,1,Basic,Basic,131.7,1,0,0,1,0,0,18,7.6,2.6,0.32,Dropout_Enrolled
1,1,1,9147,1,1,108,41,Higher,Higher,107,0,0,1,0,0,0,19,8.9,1.4,3.51,Dropout_Enrolled
1,39,1,9991,0,9,133.1,1,Basic,Unknown,118.1,1,0,0,1,0,0,39,7.6,2.6,0.32,Dropout_Enrolled
1,1,3,9773,1,1,131,1,Secondary,Secondary,127.2,1,0,0,1,0,1,18,12.4,0.5,1.79,Dropout_Enrolled
1,39,1,9773,1,1,140,1,Unknown,Basic,102.5,0,0,0,1,0,0,26,7.6,2.6,0.32,Dropout_Enrolled
1,43,1,9500,1,1,121,1,Basic,Basic,115.4,1,0,0,1,0,1,24,12.7,3.7,-1.7,Dropout_Enrolled
1,43,1,9070,1,1,150,1,Higher,Secondary,126.4,0,0,0,1,1,0,26,12.4,0.5,1.79,Dropout_Enrolled
1,1,1,9130,1,1,154,1,Higher,Higher,137.2,1,0,1,1,1,0,18,16.2,0.3,-0.92,Dropout_Enrolled
1,39,1,9500,1,1,130,1,Basic,Basic,143.8,0,0,0,1,1,0,27,10.8,1.4,1.74,Dropout_Enrolled
2,18,2,8014,0,1,140,1,Basic,Basic,120.4,0,0,1,0,0,0,39,9.4,-0.8,-3.12,Dropout_Enrolled
1,17,2,9147,1,1,116,1,Secondary,Basic,114.6,1,0,0,1,0,0,19,13.9,-0.3,0.79,Dropout_Enrolled
1,1,2,9500,1,1,117,1,Basic,Secondary,112.1,0,0,0,1,0,1,20,11.1,0.6,2.02,Dropout_Enrolled
1,1,1,9238,1,1,116,1,Basic,Basic,108.7,1,0,0,1,1,0,18,11.1,0.6,2.02,Dropout_Enrolled
1,43,1,9500,1,1,130,1,Basic,Basic,100,0,0,0,1,0,0,20,13.9,-0.3,0.79,Dropout_Enrolled
4,39,1,9500,1,19,133.1,1,Basic,Basic,140,0,0,0,1,0,1,26,16.2,0.3,-0.92,Dropout_Enrolled
1,42,1,9500,1,1,133.1,41,Higher,Secondary,100,1,0,0,0,0,0,33,12.4,0.5,1.79,Dropout_Enrolled
1,43,1,9773,1,1,127,1,Secondary,Secondary,110,0,0,1,0,1,0,19,16.2,0.3,-0.92,Dropout_Enrolled
1,39,1,9670,1,1,133.1,1,Basic,Basic,97.4,0,0,1,0,1,0,44,12.7,3.7,-1.7,Dropout_Enrolled
1,1,2,9130,1,1,140,1,Basic,Basic,129.5,1,0,0,1,0,0,18,12.7,3.7,-1.7,Dropout_Enrolled
1,1,3,9670,1,1,134,1,Secondary,Basic,128.4,1,0,0,0,1,0,19,7.6,2.6,0.32,Dropout_Enrolled
2,1,1,9991,0,2,120,1,Basic,Basic,129.2,0,0,0,1,0,0,31,9.4,-0.8,-3.12,Dropout_Enrolled
1,17,1,9147,1,1,110,1,Secondary,Secondary,99,0,0,0,1,1,0,21,10.8,1.4,1.74,Dropout_Enrolled
1,17,5,9238,1,1,134,1,Basic,Basic,126,0,0,1,0,0,0,21,13.9,-0.3,0.79,Dropout_Enrolled
1,39,1,9085,1,1,130,1,Basic,Basic,110,0,0,0,1,0,1,25,11.1,0.6,2.02,Dropout_Enrolled
1,17,2,9853,1,1,118,1,Basic,Basic,112.1,1,0,0,1,0,0,23,7.6,2.6,0.32,Dropout_Enrolled
2,39,1,9991,0,1,120,1,Basic,Basic,132.9,0,0,0,1,1,0,32,13.9,-0.3,0.79,Dropout_Enrolled
1,1,4,171,1,1,132,1,Secondary,Basic,138,1,0,1,0,1,0,19,15.5,2.8,-4.06,Dropout_Enrolled
1,17,4,9670,1,1,125,1,Secondary,Secondary,125.4,1,0,0,1,1,0,19,7.6,2.6,0.32,Dropout_Enrolled
1,1,4,9238,1,1,125,1,Basic,Secondary,122.6,1,1,0,1,0,0,18,13.9,-0.3,0.79,Dropout_Enrolled
1,51,1,9147,1,1,130,1,Basic,Basic,115.7,0,0,0,1,1,0,20,8.9,1.4,3.51,Dropout_Enrolled
1,1,1,9254,1,1,128,1,Basic,Basic,120,1,0,0,1,0,1,20,12.4,0.5,1.79,Dropout_Enrolled
1,51,1,9147,1,19,133.1,1,Basic,Basic,112.1,0,0,1,0,1,0,38,8.9,1.4,3.51,Dropout_Enrolled
2,7,1,9147,1,3,120,1,Basic,Basic,120,0,0,0,1,0,0,33,10.8,1.4,1.74,Dropout_Enrolled
2,39,1,9119,1,1,110,1,Basic,Basic,150,1,0,0,1,1,0,46,7.6,2.6,0.32,Dropout_Enrolled
4,39,1,9991,0,1,120,1,Basic,Basic,110,0,0,0,1,0,0,37,12.7,3.7,-1.7,Dropout_Enrolled
1,1,1,9500,1,1,139,1,Basic,Basic,121.3,1,0,0,1,0,1,19,9.4,-0.8,-3.12,Dropout_Enrolled
2,39,1,9238,1,1,120,1,Basic,Basic,134,0,0,0,1,1,1,40,8.9,1.4,3.51,Dropout_Enrolled
1,1,3,9085,1,1,134,1,Basic,Basic,129.1,0,0,0,1,0,0,19,7.6,2.6,0.32,Dropout_Enrolled
1,17,2,9254,1,1,123,1,Basic,Basic,113.2,1,0,1,1,0,0,19,16.2,0.3,-0.92,Dropout_Enrolled
1,1,1,9500,1,1,141,1,Secondary,Secondary,127.8,0,0,0,1,0,1,19,7.6,2.6,0.32,Dropout_Enrolled
1,39,1,9991,0,1,130,1,Secondary,Basic,115,0,0,0,1,1,0,25,16.2,0.3,-0.92,Dropout_Enrolled
1,1,3,9670,1,1,121,1,Secondary,Basic,111.9,1,0,0,1,1,1,20,10.8,1.4,1.74,Dropout_Enrolled
1,1,1,9556,1,1,180,103,Higher,Higher,183.5,1,0,0,1,0,0,18,16.2,0.3,-0.92,Dropout_Enrolled
2,44,1,9991,0,39,140,1,Basic,Basic,140,0,0,0,1,0,0,41,9.4,-0.8,-3.12,Dropout_Enrolled
1,39,1,9670,1,1,140,1,Basic,Basic,120,0,0,0,1,0,0,28,10.8,1.4,1.74,Dropout_Enrolled
1,1,6,9500,1,1,138,1,Basic,Basic,124.8,1,0,0,1,0,0,18,12.7,3.7,-1.7,Dropout_Enrolled
1,39,1,9556,1,1,140,1,Basic,Basic,106,1,0,1,0,0,1,24,8.9,1.4,3.51,Dropout_Enrolled
1,43,1,9500,1,1,125,1,Basic,Basic,123.6,1,0,0,1,0,1,18,7.6,2.6,0.32,Dropout_Enrolled
5,39,1,9003,1,19,133.1,1,Basic,Secondary,119.4,0,0,1,0,0,0,27,8.9,1.4,3.51,Dropout_Enrolled
1,1,1,9070,1,1,145,1,Secondary,Basic,127.5,1,0,0,1,1,0,20,10.8,1.4,1.74,Dropout_Enrolled
1,39,1,9085,1,1,110,1,Higher,Secondary,142.5,0,0,1,0,1,0,37,8.9,1.4,3.51,Dropout_Enrolled
4,39,1,9500,1,19,110,1,Basic,Basic,151,0,0,1,0,1,0,47,15.5,2.8,-4.06,Dropout_Enrolled
1,43,1,9500,1,1,140,100,Secondary,Secondary,128.2,0,0,0,1,0,0,39,12.7,3.7,-1.7,Dropout_Enrolled
1,39,1,9003,1,19,133.1,1,Higher,Secondary,120,0,0,0,1,1,0,25,16.2,0.3,-0.92,Dropout_Enrolled
1,43,2,9147,1,1,126,1,Secondary,Basic,100,1,0,0,1,1,0,22,16.2,0.3,-0.92,Dropout_Enrolled
1,39,1,8014,0,1,140,1,Basic,Secondary,105,0,0,0,1,0,0,26,15.5,2.8,-4.06,Dropout_Enrolled
1,1,1,9147,1,1,132,1,Basic,Basic,131.3,1,0,0,1,0,0,18,9.4,-0.8,-3.12,Dropout_Enrolled
1,1,5,9147,1,1,134,1,Higher,Higher,134.7,0,0,0,1,1,0,22,7.6,2.6,0.32,Dropout_Enrolled
1,17,6,9500,1,1,148,1,Secondary,Basic,131.7,1,0,0,1,0,0,19,13.9,-0.3,0.79,Dropout_Enrolled
1,42,1,9147,1,1,130,1,Unknown,Unknown,109.8,1,0,0,0,1,0,23,7.6,2.6,0.32,Dropout_Enrolled
1,1,1,171,1,1,134,1,Higher,Higher,141.7,1,0,0,1,1,0,18,7.6,2.6,0.32,Dropout_Enrolled
1,1,1,9238,1,1,124,1,Basic,Basic,121.2,0,0,0,1,0,0,19,7.6,2.6,0.32,Dropout_Enrolled
1,43,1,171,1,39,140,1,Basic,Basic,140,0,0,0,0,1,0,25,15.5,2.8,-4.06,Dropout_Enrolled
1,1,4,9773,1,1,143,1,Secondary,Higher,129.7,1,0,0,1,0,0,20,8.9,1.4,3.51,Dropout_Enrolled
1,42,1,9003,1,1,140,1,Secondary,Higher,140,1,0,0,1,1,0,23,15.5,2.8,-4.06,Dropout_Enrolled
1,42,1,9853,1,1,120,1,Secondary,Basic,113.9,1,0,0,1,0,0,21,12.7,3.7,-1.7,Dropout_Enrolled
1,1,1,9085,1,1,150,1,Secondary,Higher,144.6,0,0,1,0,0,0,24,7.6,2.6,0.32,Dropout_Enrolled
1,7,1,9147,1,3,120,1,Secondary,Secondary,120,0,0,0,1,0,0,33,12.4,0.5,1.79,Dropout_Enrolled
1,51,1,9070,1,1,143,1,Secondary,Secondary,120,1,0,0,1,0,0,21,11.1,0.6,2.02,Dropout_Enrolled
1,1,1,9147,1,1,123,1,Secondary,Secondary,118.8,1,0,0,1,0,0,21,7.6,2.6,0.32,Dropout_Enrolled
2,39,1,9991,0,1,140,1,Basic,Secondary,150,0,0,1,1,1,0,35,9.4,-0.8,-3.12,Dropout_Enrolled
1,17,1,9991,0,1,160,1,Unknown,Unknown,161.8,1,0,1,1,1,0,33,7.6,2.6,0.32,Dropout_Enrolled
2,39,1,9991,0,1,130,1,Basic,Basic,140,1,0,0,1,1,0,31,9.4,-0.8,-3.12,Dropout_Enrolled
1,17,1,9500,1,1,145,1,Secondary,Secondary,131.4,0,0,0,1,0,0,19,13.9,-0.3,0.79,Dropout_Enrolled
1,1,5,9500,1,1,144,1,Basic,Basic,126.8,1,0,1,0,0,0,18,9.4,-0.8,-3.12,Dropout_Enrolled
1,7,1,9085,1,3,130,1,Secondary,Basic,130,0,0,0,1,0,0,34,15.5,2.8,-4.06,Dropout_Enrolled
1,1,1,9085,1,1,131,1,Basic,Basic,130.7,0,0,1,1,0,0,21,10.8,1.4,1.74,Dropout_Enrolled
1,1,1,9130,1,1,164,1,Unknown,Secondary,163,0,0,0,1,0,0,18,7.6,2.6,0.32,Dropout_Enrolled
1,7,1,8014,0,3,140,1,Basic,Secondary,140,0,0,0,0,0,0,26,9.4,-0.8,-3.12,Dropout_Enrolled
4,7,1,9500,1,3,130,1,Higher,Basic,130,0,0,0,1,0,0,43,16.2,0.3,-0.92,Dropout_Enrolled
2,1,1,9991,0,1,150,1,Basic,Basic,131.8,0,0,0,0,0,0,29,10.8,1.4,1.74,Dropout_Enrolled
3,17,1,9238,1,1,138,1,Basic,Basic,133.5,1,0,0,1,0,1,21,12.7,3.7,-1.7,Dropout_Enrolled
2,39,1,9238,1,19,133.1,1,Basic,Basic,98.5,0,0,0,1,0,0,48,15.5,2.8,-4.06,Dropout_Enrolled
1,17,1,9147,1,1,120,1,Higher,Higher,112,0,0,0,1,0,0,20,15.5,2.8,-4.06,Dropout_Enrolled
1,43,1,9670,1,6,170,1,Unknown,Unknown,111.6,0,0,0,1,1,0,35,9.4,-0.8,-3.12,Dropout_Enrolled
1,1,1,171,1,1,127,1,Secondary,Secondary,126.3,1,0,1,1,1,0,21,16.2,0.3,-0.92,Dropout_Enrolled
1,39,1,9991,0,19,133.1,1,Basic,Basic,155.5,1,0,1,0,1,0,39,10.8,1.4,1.74,Dropout_Enrolled
1,17,4,9238,1,1,133.1,1,Secondary,Basic,95,1,0,0,1,0,1,19,15.5,2.8,-4.06,Dropout_Enrolled
1,17,6,9500,1,1,140,1,Secondary,Secondary,130.7,1,0,0,1,1,1,18,11.1,0.6,2.02,Dropout_Enrolled
1,1,1,9670,1,1,121,1,Basic,Basic,116.5,1,0,0,1,0,0,23,7.6,2.6,0.32,Dropout_Enrolled
2,39,1,9003,1,1,150,1,Higher,Higher,120,0,0,1,0,0,0,34,11.1,0.6,2.02,Dropout_Enrolled
1,1,6,9500,1,1,122,1,Secondary,Secondary,114.3,1,0,0,1,1,0,18,11.1,0.6,2.02,Dropout_Enrolled
2,43,1,9991,0,3,140,1,Basic,Basic,140,0,0,1,1,0,0,34,16.2,0.3,-0.92,Dropout_Enrolled
1,39,1,9130,1,1,133.1,1,Secondary,Basic,120,1,0,0,1,1,0,29,10.8,1.4,1.74,Dropout_Enrolled
1,1,6,9500,1,1,138,1,Secondary,Basic,123,1,0,0,1,0,0,19,12.4,0.5,1.79,Dropout_Enrolled
1,1,1,9853,1,1,133,1,Secondary,Basic,131.3,1,0,0,1,0,0,20,15.5,2.8,-4.06,Dropout_Enrolled
1,1,5,9070,1,1,134,1,Unknown,Secondary,129.8,1,0,0,1,0,0,18,9.4,-0.8,-3.12,Dropout_Enrolled
1,1,5,9119,1,1,131,1,Secondary,Basic,126.8,0,0,0,0,1,1,18,8.9,1.4,3.51,Dropout_Enrolled
1,7,1,9003,1,3,140,1,Secondary,Secondary,140,0,0,0,1,1,0,50,15.5,2.8,-4.06,Dropout_Enrolled
1,17,1,9238,1,1,120,1,Basic,Basic,114.8,1,0,1,0,0,0,19,16.2,0.3,-0.92,Dropout_Enrolled
1,1,1,9670,1,1,133.1,1,Higher,Secondary,155,0,0,0,1,0,0,22,9.4,-0.8,-3.12,Dropout_Enrolled
1,17,2,9773,1,1,126,1,Basic,Basic,129.5,1,0,1,0,0,0,18,10.8,1.4,1.74,Dropout_Enrolled
2,39,1,9991,0,19,133.1,1,Basic,Basic,137.2,0,0,1,0,0,0,32,10.8,1.4,1.74,Dropout_Enrolled
1,17,1,9085,1,1,120,1,Basic,Basic,122.5,0,0,0,0,1,0,19,11.1,0.6,2.02,Dropout_Enrolled
1,1,1,171,1,1,123,1,Secondary,Higher,118.8,0,0,0,1,1,0,19,8.9,1.4,3.51,Dropout_Enrolled
1,1,4,9147,1,1,120,1,Basic,Basic,111.3,0,0,0,1,1,0,20,12.4,0.5,1.79,Dropout_Enrolled
1,44,1,171,1,39,140,1,Secondary,Secondary,140,0,0,0,1,1,0,21,15.5,2.8,-4.06,Dropout_Enrolled
2,43,1,9130,1,9,133.1,1,Unknown,Unknown,128.2,0,0,0,1,1,0,28,7.6,2.6,0.32,Dropout_Enrolled
1,39,1,9238,1,1,160,1,Basic,Secondary,124,0,0,1,1,1,0,28,10.8,1.4,1.74,Dropout_Enrolled
4,39,1,8014,0,1,133.1,1,Basic,Basic,140,0,0,0,1,0,1,43,8.9,1.4,3.51,Dropout_Enrolled
1,17,1,9147,1,1,162,1,Secondary,Basic,138.6,1,0,0,1,0,0,19,12.7,3.7,-1.7,Dropout_Enrolled
1,43,1,9991,0,1,133.1,1,Basic,Basic,136.1,0,0,0,1,1,1,42,13.9,-0.3,0.79,Dropout_Enrolled
1,1,1,9773,1,1,150,1,Secondary,Secondary,138.1,1,0,0,1,0,0,19,11.1,0.6,2.02,Dropout_Enrolled
1,1,1,171,1,1,124,1,Higher,Higher,118.4,1,0,0,1,1,0,18,7.6,2.6,0.32,Dropout_Enrolled
1,43,1,9991,0,1,100,1,Higher,Basic,117.9,0,0,0,0,1,0,40,10.8,1.4,1.74,Dropout_Enrolled
1,1,1,171,1,1,136,1,Higher,Basic,121.7,1,0,0,1,0,0,18,9.4,-0.8,-3.12,Dropout_Enrolled
1,15,1,9670,1,1,133.1,41,Secondary,Secondary,128.2,0,0,1,0,1,0,18,8.9,1.4,3.51,Dropout_Enrolled
1,43,1,9773,1,1,129,1,Secondary,Secondary,129,0,0,0,0,0,0,21,10.8,1.4,1.74,Dropout_Enrolled
2,39,1,9119,1,1,140,1,Unknown,Unknown,140,0,0,0,0,1,0,34,15.5,2.8,-4.06,Dropout_Enrolled
1,1,1,9853,1,1,140,1,Basic,Basic,124.6,1,0,0,1,0,0,18,16.2,0.3,-0.92,Dropout_Enrolled
1,17,3,9853,1,1,133.1,1,Secondary,Secondary,134.8,1,0,0,1,0,0,18,7.6,2.6,0.32,Dropout_Enrolled
2,39,1,9500,1,1,140,1,Basic,Basic,110.5,0,0,0,1,0,0,31,12.7,3.7,-1.7,Dropout_Enrolled
1,39,1,9003,1,1,130,1,Basic,Basic,100,0,0,0,0,1,0,29,13.9,-0.3,0.79,Dropout_Enrolled
2,39,2,9003,1,19,133.1,1,Basic,Basic,110,0,0,0,0,1,0,32,15.5,2.8,-4.06,Dropout_Enrolled
1,1,5,9853,1,1,141,1,Basic,Basic,133,1,0,0,1,0,0,18,9.4,-0.8,-3.12,Dropout_Enrolled
1,1,6,9500,1,1,139,1,Basic,Basic,128.5,1,0,0,1,0,0,19,12.7,3.7,-1.7,Dropout_Enrolled
1,1,2,9773,1,1,130,1,Basic,Basic,137.4,0,0,0,1,0,0,19,15.5,2.8,-4.06,Dropout_Enrolled
1,39,1,9556,1,19,133.1,1,Higher,Secondary,110.5,0,0,0,1,1,0,37,11.1,0.6,2.02,Dropout_Enrolled
1,1,1,9773,1,1,108,1,Unknown,Basic,105.9,0,0,0,1,1,0,20,7.6,2.6,0.32,Dropout_Enrolled
1,1,1,9500,1,1,133,1,Higher,Basic,126.7,0,0,0,1,0,0,19,16.2,0.3,-0.92,Dropout_Enrolled
1,1,1,171,1,1,125,1,Basic,Basic,136.2,1,0,1,1,1,0,21,8.9,1.4,3.51,Dropout_Enrolled
1,1,1,171,1,1,150,1,Higher,Higher,154.6,1,0,0,1,0,0,19,8.9,1.4,3.51,Dropout_Enrolled
1,1,5,9500,1,1,135,1,Basic,Basic,124,1,0,0,1,0,1,19,9.4,-0.8,-3.12,Dropout_Enrolled
1,39,1,9773,1,19,133.1,1,Basic,Secondary,115,1,0,1,0,1,0,25,12.7,3.7,-1.7,Dropout_Enrolled
1,43,2,9670,1,1,130,1,Basic,Secondary,127.6,1,0,0,1,1,0,22,10.8,1.4,1.74,Dropout_Enrolled
1,1,1,9853,1,1,148,1,Basic,Basic,143.5,0,0,0,1,0,1,19,13.9,-0.3,0.79,Dropout_Enrolled
1,39,1,9991,0,1,130,1,Basic,Basic,111.9,0,0,1,1,0,0,36,12.7,3.7,-1.7,Dropout_Enrolled
1,17,3,9254,1,1,127,1,Secondary,Basic,116.9,1,0,1,1,0,0,18,12.4,0.5,1.79,Dropout_Enrolled
1,39,1,9991,0,1,150,1,Higher,Higher,135.8,0,0,1,1,1,0,29,12.7,3.7,-1.7,Dropout_Enrolled
1,39,2,9670,1,19,133.1,1,Unknown,Unknown,100,1,0,0,0,1,0,27,7.6,2.6,0.32,Dropout_Enrolled
1,17,1,9254,1,1,133.1,1,Secondary,Secondary,131,1,0,0,1,0,0,21,9.4,-0.8,-3.12,Dropout_Enrolled
1,43,1,9238,1,1,143,1,Secondary,Basic,126.6,0,0,1,0,0,0,21,9.4,-0.8,-3.12,Dropout_Enrolled
1,43,1,9238,1,1,124,1,Secondary,Secondary,118.8,1,0,1,0,0,0,22,16.2,0.3,-0.92,Dropout_Enrolled
2,39,1,9500,1,1,100,1,Basic,Basic,130,0,0,0,1,1,1,33,12.7,3.7,-1.7,Dropout_Enrolled
1,43,1,9130,1,1,130,1,Secondary,Secondary,130,1,0,0,1,1,0,33,9.4,-0.8,-3.12,Dropout_Enrolled
1,39,1,9003,1,1,133.1,1,Basic,Basic,110,1,0,0,1,1,0,31,16.2,0.3,-0.92,Dropout_Enrolled
1,1,1,9773,1,1,127,1,Basic,Basic,120.7,1,0,0,1,0,0,20,15.5,2.8,-4.06,Dropout_Enrolled
1,17,3,9853,1,1,140,1,Basic,Basic,126.7,1,0,0,1,0,0,19,10.8,1.4,1.74,Dropout_Enrolled
1,39,1,9500,1,1,100,1,Basic,Secondary,114,1,0,1,0,0,0,31,7.6,2.6,0.32,Dropout_Enrolled
1,1,1,9147,1,1,148,1,Basic,Secondary,138.3,1,0,0,1,1,0,19,12.4,0.5,1.79,Dropout_Enrolled
1,17,1,9500,1,1,131,1,Basic,Basic,123.8,1,0,0,1,0,0,19,15.5,2.8,-4.06,Dropout_Enrolled
1,43,1,9254,1,1,142,1,Basic,Basic,125.9,0,0,0,1,0,1,19,10.8,1.4,1.74,Dropout_Enrolled
2,39,1,9147,1,1,160,1,Basic,Basic,110,0,0,0,1,1,0,30,15.5,2.8,-4.06,Dropout_Enrolled
1,43,1,9147,1,1,127,25,Secondary,Higher,124.2,1,0,0,1,1,0,23,15.5,2.8,-4.06,Dropout_Enrolled
1,1,1,9773,1,1,109,1,Higher,Higher,111.8,1,0,1,1,1,0,25,15.5,2.8,-4.06,Dropout_Enrolled
1,7,1,9991,0,40,120,1,Higher,Higher,120,0,0,0,1,0,0,27,11.1,0.6,2.02,Dropout_Enrolled
1,1,3,9085,1,1,126,1,Basic,Secondary,132,1,0,0,1,0,1,18,9.4,-0.8,-3.12,Dropout_Enrolled
1,17,1,9853,1,1,147,1,Basic,Basic,142.8,1,0,0,1,0,0,23,7.6,2.6,0.32,Dropout_Enrolled
1,17,1,9670,1,1,132,1,Basic,Secondary,119.1,0,0,1,1,1,0,18,10.8,1.4,1.74,Dropout_Enrolled
1,39,1,9119,1,1,138.7,1,Secondary,Secondary,111.3,0,0,0,1,1,0,27,13.9,-0.3,0.79,Dropout_Enrolled
2,39,1,9773,1,1,120,1,Basic,Basic,155.5,0,0,0,1,1,0,47,12.7,3.7,-1.7,Dropout_Enrolled
1,1,1,9254,1,1,127,1,Basic,Basic,120.7,0,0,1,0,0,0,22,10.8,1.4,1.74,Dropout_Enrolled
1,1,1,9670,1,1,117,1,Secondary,Basic,109.3,0,0,1,0,0,1,19,12.4,0.5,1.79,Dropout_Enrolled
1,39,1,9130,1,19,133.1,1,Basic,Higher,140,1,0,1,1,1,0,24,16.2,0.3,-0.92,Dropout_Enrolled
1,39,1,9991,0,1,150,1,Secondary,Basic,123,0,0,0,1,1,0,27,12.7,3.7,-1.7,Dropout_Enrolled
1,17,5,9254,1,1,118,1,Basic,Basic,120.5,1,0,0,1,1,0,19,7.6,2.6,0.32,Dropout_Enrolled
1,39,1,9991,0,3,120,1,Basic,Basic,141,0,0,0,1,0,0,29,10.8,1.4,1.74,Dropout_Enrolled
4,39,1,9853,1,19,133.1,1,Basic,Basic,108,0,0,1,0,0,0,33,8.9,1.4,3.51,Dropout_Enrolled
1,39,1,9991,0,1,120,1,Secondary,Secondary,96,1,0,0,0,1,0,38,8.9,1.4,3.51,Dropout_Enrolled
4,39,1,8014,0,1,138,1,Basic,Basic,127,0,0,0,0,0,0,37,10.8,1.4,1.74,Dropout_Enrolled
1,17,1,9070,1,1,131,1,Basic,Basic,125.1,0,0,0,1,1,0,18,16.2,0.3,-0.92,Dropout_Enrolled
2,51,1,9500,1,1,130,1,Basic,Basic,120,0,0,0,1,1,0,44,11.1,0.6,2.02,Dropout_Enrolled
1,17,1,9853,1,1,160,1,Basic,Basic,139,1,0,0,1,0,1,18,9.4,-0.8,-3.12,Dropout_Enrolled
1,17,3,9119,1,1,138,1,Higher,Higher,125.4,1,1,0,1,1,0,19,8.9,1.4,3.51,Dropout_Enrolled
1,17,1,9147,1,1,148,1,Basic,Basic,134,0,0,0,1,1,0,18,7.6,2.6,0.32,Dropout_Enrolled
1,1,1,9670,1,1,125,1,Basic,Secondary,122.6,0,0,0,1,1,0,21,9.4,-0.8,-3.12,Dropout_Enrolled
1,1,4,9500,1,1,126,1,Secondary,Secondary,120.2,0,0,0,1,0,1,19,12.4,0.5,1.79,Dropout_Enrolled
1,18,3,9147,1,1,133.1,1,Secondary,Basic,101,1,0,0,0,1,0,23,8.9,1.4,3.51,Dropout_Enrolled
1,17,1,9254,1,1,122,1,Basic,Basic,118.2,0,0,0,1,0,1,20,12.4,0.5,1.79,Dropout_Enrolled
1,39,1,9500,1,1,120,1,Secondary,Higher,125.3,0,0,1,1,1,0,30,12.4,0.5,1.79,Dropout_Enrolled
1,1,1,9853,1,1,124,1,Higher,Secondary,121.6,0,0,0,1,0,0,18,15.5,2.8,-4.06,Dropout_Enrolled
1,43,1,9130,1,1,120,1,Higher,Higher,120,1,0,0,0,1,0,22,10.8,1.4,1.74,Dropout_Enrolled
1,39,1,9991,0,1,120,1,Basic,Basic,147.8,0,0,0,1,0,0,40,13.9,-0.3,0.79,Dropout_Enrolled
1,1,1,9130,1,1,148,1,Secondary,Secondary,141.7,0,0,0,0,1,0,18,8.9,1.4,3.51,Dropout_Enrolled
1,39,1,9238,1,19,133.1,1,Basic,Basic,139,0,0,1,0,1,0,33,16.2,0.3,-0.92,Dropout_Enrolled
1,39,1,8014,0,39,110,1,Basic,Basic,127.5,0,0,1,0,0,0,26,16.2,0.3,-0.92,Dropout_Enrolled
1,17,3,9085,1,1,117,1,Basic,Basic,111.1,0,0,0,1,0,0,21,15.5,2.8,-4.06,Dropout_Enrolled
1,53,1,9085,1,42,140,1,Secondary,Secondary,140,1,0,1,1,0,0,21,8.9,1.4,3.51,Dropout_Enrolled
1,44,1,9238,1,39,130,1,Secondary,Basic,127.4,0,0,1,0,1,0,27,13.9,-0.3,0.79,Dropout_Enrolled
1,17,3,9254,1,1,122,1,Secondary,Secondary,126.6,0,0,0,0,0,0,18,10.8,1.4,1.74,Dropout_Enrolled
1,17,2,9147,1,1,133,1,Basic,Secondary,120.1,1,0,0,1,0,1,18,13.9,-0.3,0.79,Dropout_Enrolled
1,1,1,9130,1,1,137,1,Higher,Basic,130.7,1,0,0,1,0,0,18,8.9,1.4,3.51,Dropout_Enrolled
1,17,1,9670,1,1,124,1,Basic,Basic,114.2,1,0,1,1,0,0,18,10.8,1.4,1.74,Dropout_Enrolled
1,44,3,9085,1,39,150,1,Secondary,Basic,150,1,0,0,1,0,0,19,12.7,3.7,-1.7,Dropout_Enrolled
1,17,4,9119,1,1,138,1,Secondary,Higher,127.5,1,0,0,1,1,0,19,8.9,1.4,3.51,Dropout_Enrolled
1,1,3,9500,1,1,131,1,Basic,Higher,126.1,1,0,0,1,0,0,18,15.5,2.8,-4.06,Dropout_Enrolled
1,43,1,9147,1,1,131,1,Higher,Basic,126.1,0,0,0,1,0,0,18,16.2,0.3,-0.92,Dropout_Enrolled
1,1,1,9500,1,1,154,1,Basic,Basic,149.5,1,0,0,1,0,1,30,13.9,-0.3,0.79,Dropout_Enrolled
1,43,3,9254,1,1,135,1,Higher,Higher,122.1,0,0,0,1,1,0,19,12.7,3.7,-1.7,Dropout_Enrolled
1,43,1,9085,1,1,110,1,Higher,Basic,105,0,0,1,0,1,0,34,13.9,-0.3,0.79,Dropout_Enrolled
1,1,1,9853,1,1,125,1,Basic,Basic,114.9,1,0,1,0,0,0,21,15.5,2.8,-4.06,Dropout_Enrolled
1,39,1,9119,1,1,130,1,Basic,Basic,134,0,0,0,1,1,1,24,12.7,3.7,-1.7,Dropout_Enrolled
1,39,1,9500,1,1,133.1,1,Secondary,Secondary,100.8,0,0,0,1,1,0,24,13.9,-0.3,0.79,Dropout_Enrolled
1,1,3,9773,1,1,142,1,Unknown,Secondary,136.1,1,0,0,0,1,0,19,9.4,-0.8,-3.12,Dropout_Enrolled
1,17,5,9254,1,1,130,1,Basic,Basic,122.7,1,0,1,1,1,1,20,8.9,1.4,3.51,Dropout_Enrolled
1,1,6,9500,1,1,122,1,Secondary,Secondary,119.6,1,0,0,1,0,0,21,13.9,-0.3,0.79,Dropout_Enrolled
1,7,1,9238,1,3,130,1,Secondary,Secondary,125.1,0,0,1,0,0,0,27,16.2,0.3,-0.92,Dropout_Enrolled
2,39,1,9773,1,19,133.1,1,Basic,Basic,131,0,0,1,0,1,0,42,13.9,-0.3,0.79,Dropout_Enrolled
2,43,1,8014,0,1,120,1,Basic,Basic,161.1,0,0,0,1,1,0,47,16.2,0.3,-0.92,Dropout_Enrolled
1,7,1,9500,1,3,120,1,Secondary,Secondary,120,1,0,0,0,1,0,23,12.7,3.7,-1.7,Dropout_Enrolled
1,39,1,9991,0,1,133.1,1,Basic,Basic,154.4,0,0,0,1,1,0,27,10.8,1.4,1.74,Dropout_Enrolled
1,43,4,9085,1,1,133.1,1,Unknown,Unknown,125.2,0,0,0,1,0,0,21,7.6,2.6,0.32,Dropout_Enrolled
1,43,1,9085,1,1,170,1,Basic,Basic,170,1,0,0,1,0,0,19,12.7,3.7,-1.7,Dropout_Enrolled
2,39,1,9556,1,1,100,1,Basic,Basic,120,0,0,0,1,0,0,47,12.7,3.7,-1.7,Dropout_Enrolled
1,1,3,9238,1,1,133.1,1,Secondary,Secondary,100,1,0,0,1,1,0,22,8.9,1.4,3.51,Dropout_Enrolled
2,7,1,9991,0,3,140,1,Unknown,Unknown,140,1,0,0,0,1,0,33,7.6,2.6,0.32,Dropout_Enrolled
1,43,1,9773,1,1,121,1,Secondary,Secondary,121,1,0,0,1,1,0,23,9.4,-0.8,-3.12,Dropout_Enrolled
1,43,1,9130,1,1,120,6,Secondary,Higher,120,0,0,1,1,0,0,21,10.8,1.4,1.74,Dropout_Enrolled
1,43,1,9500,1,1,120,1,Higher,Higher,136.6,0,0,0,1,1,0,23,13.9,-0.3,0.79,Dropout_Enrolled
1,39,1,9500,1,1,140,1,Basic,Basic,135.5,0,0,0,1,0,0,32,13.9,-0.3,0.79,Dropout_Enrolled
1,18,1,9119,1,1,146,1,Secondary,Basic,132.4,1,0,0,1,1,0,18,9.4,-0.8,-3.12,Dropout_Enrolled
1,1,1,9773,1,1,116,1,Basic,Basic,114.3,1,0,0,1,0,0,20,7.6,2.6,0.32,Dropout_Enrolled
1,17,1,9130,1,1,143,1,Higher,Higher,131.8,1,0,1,0,0,0,18,8.9,1.4,3.51,Dropout_Enrolled
1,1,1,9147,1,1,123,1,Secondary,Basic,117.8,0,0,0,1,1,0,20,8.9,1.4,3.51,Dropout_Enrolled
1,15,1,9556,1,1,137,26,Basic,Secondary,137,0,0,1,1,0,0,19,8.9,1.4,3.51,Dropout_Enrolled
1,17,4,9773,1,1,137,1,Secondary,Secondary,125.8,0,0,1,1,1,0,20,12.7,3.7,-1.7,Dropout_Enrolled
2,39,2,9147,1,1,133.1,1,Basic,Basic,110,0,0,0,1,1,0,43,9.4,-0.8,-3.12,Dropout_Enrolled
1,43,1,8014,0,1,113,1,Basic,Basic,128.2,0,0,0,0,0,0,41,9.4,-0.8,-3.12,Dropout_Enrolled
1,39,1,9085,1,1,110,1,Secondary,Secondary,160,1,0,1,1,0,0,30,13.9,-0.3,0.79,Dropout_Enrolled
1,1,2,9773,1,1,122,1,Basic,Basic,126.9,1,0,0,1,0,1,19,9.4,-0.8,-3.12,Dropout_Enrolled
1,1,4,9119,1,1,111,1,Basic,Basic,107.5,1,0,0,1,1,1,22,11.1,0.6,2.02,Dropout_Enrolled
1,53,1,9085,1,42,130,1,Basic,Secondary,130,1,0,1,0,0,0,24,8.9,1.4,3.51,Dropout_Enrolled
1,43,1,9238,1,1,125,1,Basic,Basic,117,1,0,0,1,0,0,21,16.2,0.3,-0.92,Dropout_Enrolled
1,17,1,9147,1,1,115,1,Basic,Basic,112.9,1,0,0,0,1,0,19,9.4,-0.8,-3.12,Dropout_Enrolled
1,1,2,9085,1,1,118,1,Secondary,Basic,112.4,1,0,0,1,1,0,21,10.8,1.4,1.74,Dropout_Enrolled
2,39,1,9991,0,1,130,1,Basic,Basic,145.6,0,0,0,1,1,0,34,13.9,-0.3,0.79,Dropout_Enrolled
1,17,1,9254,1,1,120,1,Basic,Basic,125.5,0,0,0,1,1,0,18,12.7,3.7,-1.7,Dropout_Enrolled
1,1,1,9853,1,1,133.1,1,Basic,Basic,95,1,0,1,0,0,0,22,11.1,0.6,2.02,Dropout_Enrolled
1,1,5,9147,1,1,122,1,Basic,Basic,117.5,1,0,1,0,0,0,22,12.7,3.7,-1.7,Dropout_Enrolled
1,1,3,9147,1,1,131,1,Basic,Basic,132.4,1,0,0,1,0,0,19,9.4,-0.8,-3.12,Dropout_Enrolled
1,18,2,9853,1,1,120,1,Basic,Basic,113.7,1,0,1,0,0,0,19,12.4,0.5,1.79,Dropout_Enrolled
1,1,1,9085,1,1,101,1,Basic,Basic,101,1,0,1,1,0,0,22,12.4,0.5,1.79,Dropout_Enrolled
2,18,2,9238,1,1,140,1,Basic,Basic,120.4,0,0,1,0,0,0,39,9.4,-0.8,-3.12,Dropout_Enrolled
1,1,1,9070,1,1,148,1,Secondary,Secondary,141.4,0,0,0,1,1,0,19,15.5,2.8,-4.06,Dropout_Enrolled
1,1,6,9500,1,1,129,1,Basic,Basic,127.8,1,0,0,1,0,0,19,9.4,-0.8,-3.12,Dropout_Enrolled
1,17,1,9085,1,1,130,1,Basic,Secondary,101.3,1,0,0,1,1,0,20,12.4,0.5,1.79,Dropout_Enrolled
2,42,1,9147,1,1,100,1,Basic,Basic,100,1,0,0,1,0,0,54,15.5,2.8,-4.06,Dropout_Enrolled
1,1,2,9085,1,1,156,1,Higher,Higher,150.9,1,0,0,1,0,0,18,11.1,0.6,2.02,Dropout_Enrolled
2,39,1,9991,0,1,120,1,Basic,Basic,119.9,0,0,0,1,0,0,50,12.7,3.7,-1.7,Dropout_Enrolled
1,1,2,9773,1,1,128,1,Unknown,Basic,141,1,0,0,0,0,0,20,7.6,2.6,0.32,Dropout_Enrolled
1,1,1,9130,1,1,144,1,Higher,Secondary,137.7,0,0,0,0,0,0,23,10.8,1.4,1.74,Dropout_Enrolled
1,39,1,9085,1,19,133.1,1,Basic,Basic,104,0,0,0,1,0,0,26,10.8,1.4,1.74,Dropout_Enrolled
1,39,1,9070,1,1,140,1,Basic,Basic,118,0,0,1,1,1,1,45,16.2,0.3,-0.92,Dropout_Enrolled
1,17,3,9085,1,1,134,1,Basic,Basic,120.4,1,0,0,1,0,0,20,9.4,-0.8,-3.12,Dropout_Enrolled
1,44,1,9119,1,39,150,1,Basic,Basic,150,1,0,1,1,1,0,20,12.4,0.5,1.79,Dropout_Enrolled
1,1,1,9773,1,1,127,1,Higher,Higher,122.8,1,0,0,1,1,0,20,12.4,0.5,1.79,Dropout_Enrolled
1,1,1,9238,1,1,107,1,Basic,Basic,103.5,1,0,0,1,0,0,20,16.2,0.3,-0.92,Dropout_Enrolled
1,43,1,8014,0,1,130,1,Basic,Higher,100,0,0,0,1,1,0,54,12.7,3.7,-1.7,Dropout_Enrolled
1,1,1,9773,1,1,127,1,Basic,Basic,123.2,1,0,0,1,0,0,18,9.4,-0.8,-3.12,Dropout_Enrolled
1,39,1,9119,1,1,150,1,Higher,Higher,150,1,0,0,1,1,0,27,8.9,1.4,3.51,Dropout_Enrolled
1,43,1,9070,1,1,125,1,Basic,Basic,131.7,1,0,0,1,1,0,20,12.4,0.5,1.79,Dropout_Enrolled
4,39,2,9147,1,19,133.1,1,Basic,Basic,116.4,0,0,1,0,1,0,70,10.8,1.4,1.74,Dropout_Enrolled
1,1,2,9773,1,1,144,1,Higher,Higher,140.2,1,0,0,1,0,0,20,16.2,0.3,-0.92,Dropout_Enrolled
1,44,1,9085,1,39,110,1,Higher,Higher,110,0,0,0,1,1,0,23,13.9,-0.3,0.79,Dropout_Enrolled
1,44,1,9130,1,39,150,1,Secondary,Secondary,150,1,0,0,1,0,0,20,10.8,1.4,1.74,Dropout_Enrolled
1,39,1,9500,1,1,100,1,Higher,Secondary,121.3,1,0,0,1,0,0,34,10.8,1.4,1.74,Dropout_Enrolled
1,39,1,9254,1,9,133.1,1,Unknown,Unknown,110,1,0,0,0,0,0,28,7.6,2.6,0.32,Dropout_Enrolled
1,42,1,9147,1,1,139,1,Higher,Basic,112.3,1,0,0,1,0,0,19,10.8,1.4,1.74,Dropout_Enrolled
1,1,4,9500,1,1,115,1,Higher,Higher,111.5,1,0,1,0,0,0,19,13.9,-0.3,0.79,Dropout_Enrolled
1,1,1,9773,1,1,134,1,Basic,Basic,141.4,1,0,0,1,0,0,19,9.4,-0.8,-3.12,Dropout_Enrolled
1,1,1,9773,1,1,120,1,Basic,Basic,114.8,1,1,0,1,0,0,19,7.6,2.6,0.32,Dropout_Enrolled
4,43,1,9500,1,1,130,1,Basic,Basic,103.7,0,0,0,1,0,0,38,10.8,1.4,1.74,Dropout_Enrolled
1,51,1,9991,0,39,120,1,Secondary,Higher,118.1,0,0,0,1,1,0,28,8.9,1.4,3.51,Dropout_Enrolled
1,39,1,9119,1,1,110,1,Basic,Basic,108.4,1,0,0,1,0,0,34,10.8,1.4,1.74,Dropout_Enrolled
1,1,4,9500,1,1,137,1,Secondary,Basic,126.7,1,0,0,1,0,0,18,15.5,2.8,-4.06,Dropout_Enrolled
1,17,1,9147,1,1,145,1,Basic,Basic,132.1,1,0,0,1,1,0,21,11.1,0.6,2.02,Dropout_Enrolled
1,15,1,9556,1,1,114,26,Higher,Basic,114,0,0,0,1,0,0,20,8.9,1.4,3.51,Dropout_Enrolled
1,43,1,9556,1,1,140,1,Basic,Basic,128,1,0,0,0,0,0,32,10.8,1.4,1.74,Dropout_Enrolled
1,7,1,9500,1,3,130,1,Basic,Basic,130,0,0,0,1,0,0,36,16.2,0.3,-0.92,Dropout_Enrolled
1,39,1,171,1,1,147,1,Basic,Basic,133.3,0,0,0,0,0,0,32,16.2,0.3,-0.92,Dropout_Enrolled
1,42,1,9853,1,12,133.1,1,Secondary,Higher,133.7,0,0,0,1,0,0,28,16.2,0.3,-0.92,Dropout_Enrolled
1,39,1,9238,1,9,133.1,1,Unknown,Unknown,118,0,0,0,1,0,0,47,7.6,2.6,0.32,Dropout_Enrolled
4,39,1,9670,1,19,133.1,1,Basic,Basic,130,0,0,1,1,1,1,29,11.1,0.6,2.02,Dropout_Enrolled
2,43,3,9991,0,1,120,1,Basic,Basic,128.2,1,0,0,1,1,0,32,7.6,2.6,0.32,Dropout_Enrolled
1,1,2,9147,1,1,128,1,Higher,Secondary,121,1,1,1,1,1,0,20,16.2,0.3,-0.92,Dropout_Enrolled
1,17,1,9773,1,1,144,1,Basic,Basic,130.7,1,0,0,1,0,0,20,7.6,2.6,0.32,Dropout_Enrolled
1,7,2,9130,1,3,140,1,Unknown,Unknown,140,0,0,0,1,0,0,25,10.8,1.4,1.74,Dropout_Enrolled
1,18,1,9147,1,1,131,1,Unknown,Unknown,131,0,0,0,1,1,0,22,9.4,-0.8,-3.12,Dropout_Enrolled
1,43,1,9119,1,1,128,1,Secondary,Basic,100,0,0,0,1,1,0,19,13.9,-0.3,0.79,Dropout_Enrolled
1,42,1,9070,1,1,100,1,Higher,Higher,115.9,0,0,0,1,0,0,29,9.4,-0.8,-3.12,Dropout_Enrolled
2,39,2,9556,1,1,133.1,105,Secondary,Higher,152.8,1,0,0,1,0,0,28,12.4,0.5,1.79,Dropout_Enrolled
1,17,3,9119,1,1,120,1,Secondary,Basic,116.9,1,0,1,0,1,0,18,8.9,1.4,3.51,Dropout_Enrolled
1,7,1,9500,1,3,130,1,Basic,Basic,130,1,0,0,1,1,0,30,9.4,-0.8,-3.12,Dropout_Enrolled
1,39,1,8014,0,1,100,1,Basic,Basic,100,0,0,0,1,0,0,34,12.7,3.7,-1.7,Dropout_Enrolled
1,42,1,9147,1,1,130,1,Basic,Basic,130,1,0,0,1,0,0,26,9.4,-0.8,-3.12,Dropout_Enrolled
1,17,5,9773,1,1,122,1,Basic,Basic,123.1,1,0,0,0,0,0,19,9.4,-0.8,-3.12,Dropout_Enrolled
1,17,2,9119,1,1,116,1,Basic,Secondary,112.2,0,0,0,1,1,0,19,16.2,0.3,-0.92,Dropout_Enrolled
1,39,1,9254,1,1,133.1,1,Secondary,Secondary,105,1,0,1,0,0,0,24,8.9,1.4,3.51,Dropout_Enrolled
1,43,1,9670,1,1,160,1,Unknown,Unknown,100.1,0,0,0,0,1,0,35,7.6,2.6,0.32,Dropout_Enrolled
2,39,1,8014,0,1,130,1,Basic,Basic,113.5,1,0,0,1,0,0,36,9.4,-0.8,-3.12,Dropout_Enrolled
2,39,1,9991,0,19,133.1,1,Basic,Secondary,138.3,0,0,0,1,1,0,44,13.9,-0.3,0.79,Dropout_Enrolled
1,43,1,9147,1,1,142,1,Basic,Basic,115,0,0,0,1,0,0,19,13.9,-0.3,0.79,Dropout_Enrolled
1,39,1,8014,0,1,133.1,1,Unknown,Higher,118.5,1,0,0,1,0,0,31,7.6,2.6,0.32,Dropout_Enrolled
1,1,1,9119,1,1,140,1,Basic,Basic,166,1,0,1,1,1,0,20,9.4,-0.8,-3.12,Dropout_Enrolled
1,1,2,171,1,1,129,1,Basic,Basic,122,1,0,0,0,1,0,22,7.6,2.6,0.32,Dropout_Enrolled
1,26,1,9147,1,2,133.1,1,Unknown,Unknown,121.5,1,0,0,1,0,0,31,7.6,2.6,0.32,Dropout_Enrolled
1,17,1,9670,1,1,141,1,Secondary,Basic,128.8,1,0,0,1,0,0,19,8.9,1.4,3.51,Dropout_Enrolled
1,43,3,9254,1,1,110,1,Basic,Basic,107.2,1,0,0,1,1,0,19,7.6,2.6,0.32,Dropout_Enrolled
1,1,1,9119,1,1,129,1,Secondary,Secondary,124.1,1,0,0,1,1,0,19,7.6,2.6,0.32,Dropout_Enrolled
1,1,2,9070,1,1,128,1,Basic,Basic,123.5,1,1,0,0,1,0,19,9.4,-0.8,-3.12,Dropout_Enrolled
1,44,1,9119,1,1,130,1,Basic,Secondary,129.4,1,0,1,0,1,0,23,13.9,-0.3,0.79,Dropout_Enrolled
1,1,1,9085,1,1,127,1,Basic,Basic,122.8,1,0,0,1,0,0,19,12.7,3.7,-1.7,Dropout_Enrolled
1,17,1,9238,1,1,103,1,Basic,Basic,104.1,0,0,0,1,0,0,20,8.9,1.4,3.51,Dropout_Enrolled
4,42,1,9147,1,1,110,1,Basic,Basic,128.2,0,0,0,1,0,0,41,9.4,-0.8,-3.12,Graduate
1,17,4,9670,1,1,120,1,Secondary,Basic,117.2,1,0,0,1,0,0,18,11.1,0.6,2.02,Graduate
1,17,2,9147,1,1,122,1,Basic,Basic,116.1,1,0,0,1,0,1,19,12.4,0.5,1.79,Graduate
1,39,1,9003,1,1,140,1,Higher,Higher,110,0,0,0,1,1,0,31,16.2,0.3,-0.92,Graduate
1,1,1,9500,1,1,141,1,Basic,Basic,136.3,1,0,0,1,1,1,18,7.6,2.6,0.32,Graduate
1,42,1,9500,1,1,150,1,Basic,Secondary,110,1,0,0,1,1,1,33,9.4,-0.8,-3.12,Graduate
1,44,1,9238,1,39,140,1,Secondary,Secondary,135.7,1,0,0,1,0,0,20,12.4,0.5,1.79,Graduate
1,17,2,9556,1,1,136,1,Secondary,Secondary,128.3,0,0,0,1,0,1,18,15.5,2.8,-4.06,Graduate
1,1,1,9500,1,1,145,1,Basic,Basic,136.6,0,0,0,1,0,1,19,15.5,2.8,-4.06,Graduate
1,17,2,9500,1,1,145,1,Basic,Basic,130.5,1,0,0,1,0,0,18,10.8,1.4,1.74,Graduate
1,39,1,9991,0,3,130,1,Basic,Basic,146.2,0,0,0,1,0,0,28,10.8,1.4,1.74,Graduate
1,1,1,9500,1,1,142,1,Basic,Basic,133,1,0,0,1,0,1,19,9.4,-0.8,-3.12,Graduate
1,17,1,9773,1,1,121,1,Basic,Basic,120.4,1,0,0,1,0,1,18,15.5,2.8,-4.06,Graduate
1,1,4,9773,1,1,136,1,Secondary,Secondary,121.7,1,0,0,1,0,1,22,12.4,0.5,1.79,Graduate
1,17,2,9254,1,1,123,1,Basic,Basic,113.9,1,0,0,1,0,0,18,11.1,0.6,2.02,Graduate
1,1,1,9670,1,1,133.1,1,Secondary,Secondary,103,1,0,0,1,0,1,20,10.8,1.4,1.74,Graduate
1,17,2,9556,1,1,122,1,Basic,Basic,118.3,1,0,0,1,0,1,19,15.5,2.8,-4.06,Graduate
1,17,1,9670,1,1,133.1,1,Secondary,Basic,140,1,0,0,1,0,0,22,13.9,-0.3,0.79,Graduate
1,53,1,9085,1,42,170,1,Secondary,Basic,170,0,0,0,1,0,0,20,8.9,1.4,3.51,Graduate
1,39,1,9991,0,19,133.1,1,Basic,Basic,142.7,0,0,1,1,1,1,34,16.2,0.3,-0.92,Graduate
1,1,1,171,1,1,149,1,Higher,Higher,151.1,1,0,0,1,1,0,19,9.4,-0.8,-3.12,Graduate
1,1,2,171,1,1,117,1,Secondary,Basic,121.6,1,0,0,1,0,0,22,8.9,1.4,3.51,Graduate
1,1,4,9500,1,1,141,1,Basic,Basic,132.5,1,0,0,1,0,1,18,9.4,-0.8,-3.12,Graduate
1,1,6,9853,1,1,136,1,Secondary,Basic,122,0,0,0,1,0,0,18,7.6,2.6,0.32,Graduate
2,1,4,9853,1,1,134,1,Basic,Basic,122.5,0,1,0,1,0,1,19,10.8,1.4,1.74,Graduate
1,1,2,9853,1,1,134,1,Secondary,Basic,122.5,1,0,0,1,0,1,19,15.5,2.8,-4.06,Graduate
1,1,3,9500,1,1,134,1,Basic,Basic,120.3,1,0,0,1,0,1,18,10.8,1.4,1.74,Graduate
5,39,1,9254,1,1,133.1,1,Higher,Higher,103,0,0,0,1,0,0,62,10.8,1.4,1.74,Graduate
1,1,1,9238,1,1,127,1,Basic,Basic,125.3,0,0,0,1,1,0,19,7.6,2.6,0.32,Graduate
1,1,1,9070,1,1,139,1,Secondary,Basic,134.9,1,0,0,1,1,0,20,16.2,0.3,-0.92,Graduate
1,1,2,9500,1,1,137,1,Secondary,Higher,124.6,0,0,0,1,0,0,18,15.5,2.8,-4.06,Graduate
1,17,1,9238,1,1,143,1,Basic,Basic,126.2,1,0,0,1,0,1,21,12.4,0.5,1.79,Graduate
1,17,1,9500,1,1,128,1,Basic,Basic,124.3,1,0,0,1,0,1,19,15.5,2.8,-4.06,Graduate
1,1,2,9238,1,1,136,1,Basic,Basic,121.7,1,0,0,1,0,1,21,13.9,-0.3,0.79,Graduate
1,1,5,9238,1,3,135,1,Secondary,Basic,129.4,0,0,1,1,0,0,18,10.8,1.4,1.74,Graduate
1,1,1,171,1,1,115,1,Secondary,Secondary,134.3,1,0,0,1,1,0,25,12.4,0.5,1.79,Graduate
1,17,2,9773,1,1,125,1,Secondary,Secondary,115.6,1,0,0,1,0,0,19,12.4,0.5,1.79,Graduate
1,44,1,8014,0,39,130,1,Secondary,Basic,133.4,0,0,0,1,0,1,21,12.4,0.5,1.79,Graduate
1,17,1,9238,1,1,125,1,Basic,Basic,114.9,0,0,0,1,0,1,19,11.1,0.6,2.02,Graduate
1,43,1,9238,1,1,130,1,Basic,Basic,118.4,0,0,1,1,0,0,28,16.2,0.3,-0.92,Graduate
1,1,5,9500,1,1,144,1,Basic,Basic,136,1,0,0,1,0,1,19,7.6,2.6,0.32,Graduate
2,1,5,9500,1,1,130,1,Secondary,Basic,122.3,0,0,0,1,0,0,19,7.6,2.6,0.32,Graduate
1,1,4,9500,1,1,140,1,Secondary,Secondary,131.6,1,0,0,1,0,0,18,12.4,0.5,1.79,Graduate
1,1,3,9070,1,1,122,1,Basic,Basic,125.9,1,0,0,1,1,1,20,12.4,0.5,1.79,Graduate
1,1,1,9773,1,1,160,1,Secondary,Basic,146.5,0,0,0,1,0,1,18,13.9,-0.3,0.79,Graduate
1,44,1,171,1,39,140,1,Higher,Higher,140,0,0,1,1,1,0,20,15.5,2.8,-4.06,Graduate
1,39,1,9085,1,1,133.1,1,Basic,Basic,130,1,0,0,1,0,0,24,13.9,-0.3,0.79,Graduate
1,1,1,9085,1,1,138,1,Basic,Basic,126.8,1,0,0,1,1,0,18,10.8,1.4,1.74,Graduate
1,18,1,9853,1,1,132,1,Basic,Basic,126.1,0,0,0,1,0,1,18,11.1,0.6,2.02,Graduate
1,43,2,9500,1,6,119.1,1,Secondary,Basic,119.1,0,0,0,1,1,0,22,7.6,2.6,0.32,Graduate
1,53,1,9085,1,42,140,1,Basic,Basic,142.5,1,0,0,1,0,1,22,8.9,1.4,3.51,Graduate
1,17,3,9238,1,1,143,1,Basic,Basic,126.9,1,0,0,1,0,0,18,7.6,2.6,0.32,Graduate
1,1,1,9254,1,1,130,1,Basic,Basic,133.9,1,0,0,1,0,0,18,9.4,-0.8,-3.12,Graduate
1,1,1,9070,1,1,137,1,Basic,Basic,126.2,1,0,0,1,0,1,19,10.8,1.4,1.74,Graduate
1,1,1,9238,1,1,120,1,Basic,Basic,112.3,0,0,0,1,0,1,22,12.7,3.7,-1.7,Graduate
1,1,1,9147,1,1,150,1,Basic,Basic,138.5,0,0,0,1,0,1,18,12.4,0.5,1.79,Graduate
1,1,4,9670,1,1,133,1,Secondary,Higher,121.1,1,0,0,1,0,0,18,13.9,-0.3,0.79,Graduate
1,51,1,9500,1,1,127,1,Basic,Secondary,150,0,0,0,1,0,1,19,11.1,0.6,2.02,Graduate
1,43,1,9991,0,1,120,1,Basic,Basic,141,0,0,0,1,1,1,32,10.8,1.4,1.74,Graduate
1,1,1,9773,1,1,130,1,Basic,Basic,133.9,0,0,0,1,1,1,19,10.8,1.4,1.74,Graduate
1,44,1,9003,1,39,160,1,Basic,Basic,160,1,0,0,1,0,0,21,15.5,2.8,-4.06,Graduate
1,17,2,9147,1,1,134,1,Basic,Basic,126.3,1,0,0,1,0,1,18,16.2,0.3,-0.92,Graduate
1,17,3,9556,1,1,131,1,Basic,Basic,128.5,0,0,0,1,0,1,18,12.7,3.7,-1.7,Graduate
5,43,1,9991,0,3,130,1,Higher,Higher,130,0,0,0,1,0,0,41,16.2,0.3,-0.92,Graduate
1,17,1,9670,1,1,145,1,Higher,Higher,129.3,1,0,0,1,0,0,20,16.2,0.3,-0.92,Graduate
1,43,4,9147,1,1,124,1,Basic,Basic,117.4,0,0,0,1,0,0,19,7.6,2.6,0.32,Graduate
1,44,1,9003,1,39,120,1,Higher,Secondary,120,0,0,0,1,1,0,21,8.9,1.4,3.51,Graduate
1,44,1,9003,1,39,140,1,Basic,Basic,140,1,0,0,1,1,1,20,12.4,0.5,1.79,Graduate
1,1,3,9500,1,1,135,1,Secondary,Basic,120.5,1,0,0,1,0,0,19,10.8,1.4,1.74,Graduate
1,1,1,9130,1,1,133,1,Higher,Basic,125.7,1,0,0,1,1,1,18,12.4,0.5,1.79,Graduate
1,1,4,9500,1,1,136,1,Basic,Basic,123,1,0,0,1,0,0,19,10.8,1.4,1.74,Graduate
1,17,4,9500,1,1,133,1,Higher,Higher,130.7,1,0,0,1,0,0,19,12.4,0.5,1.79,Graduate
2,43,2,9147,1,1,133.1,1,Basic,Basic,109,1,0,0,1,0,0,46,9.4,-0.8,-3.12,Graduate
1,43,4,8014,0,1,116,1,Unknown,Unknown,116.2,0,0,0,1,1,0,21,9.4,-0.8,-3.12,Graduate
1,1,2,9500,1,1,137,1,Basic,Basic,120.8,1,0,0,1,0,1,18,10.8,1.4,1.74,Graduate
1,1,2,9670,1,1,120,1,Higher,Basic,115.5,1,0,0,1,0,0,18,13.9,-0.3,0.79,Graduate
1,17,4,9070,1,1,148,1,Secondary,Higher,163.4,1,0,0,1,0,0,20,16.2,0.3,-0.92,Graduate
2,51,1,9991,0,1,127,1,Basic,Basic,100.1,0,0,0,1,0,0,31,8.9,1.4,3.51,Graduate
1,17,2,9773,1,1,122,1,Basic,Basic,119.6,1,0,0,1,0,0,20,9.4,-0.8,-3.12,Graduate
1,39,1,9991,0,19,133.1,1,Basic,Basic,117.2,0,0,0,1,0,0,41,7.6,2.6,0.32,Graduate
1,1,1,9773,1,1,133.1,1,Higher,Basic,105,1,0,0,1,0,0,20,12.7,3.7,-1.7,Graduate
1,1,1,9500,1,1,148,1,Basic,Basic,138.7,0,0,0,1,0,1,19,15.5,2.8,-4.06,Graduate
1,1,5,9085,1,1,124,1,Higher,Basic,113.9,1,0,0,1,0,0,19,16.2,0.3,-0.92,Graduate
1,18,3,9085,1,1,149,103,Secondary,Secondary,132.2,1,0,0,1,0,1,18,10.8,1.4,1.74,Graduate
1,7,1,9500,1,3,130,1,Basic,Basic,130,1,0,0,1,0,0,27,12.7,3.7,-1.7,Graduate
1,1,1,9773,1,1,128,1,Secondary,Basic,118.2,0,0,0,1,0,0,19,12.7,3.7,-1.7,Graduate
1,1,1,9238,1,1,133,1,Basic,Basic,121.8,1,0,0,1,0,1,18,12.4,0.5,1.79,Graduate
1,1,1,9147,1,1,131,1,Higher,Basic,118.8,0,0,0,1,0,0,19,16.2,0.3,-0.92,Graduate
1,1,1,9085,1,1,128,1,Basic,Secondary,135.7,1,0,0,1,0,0,20,10.8,1.4,1.74,Graduate
1,1,1,9773,1,1,141,1,Basic,Basic,128.4,1,0,0,1,0,0,18,11.1,0.6,2.02,Graduate
1,17,1,9254,1,1,125,1,Secondary,Secondary,114.5,0,0,0,1,1,1,22,11.1,0.6,2.02,Graduate
1,1,3,9500,1,1,108,1,Basic,Secondary,107.8,1,0,0,1,0,1,20,13.9,-0.3,0.79,Graduate
1,1,1,9500,1,1,143,1,Secondary,Basic,128,0,0,0,1,0,1,18,13.9,-0.3,0.79,Graduate
1,18,2,9500,1,1,129,1,Basic,Basic,119,1,0,0,1,0,1,19,10.8,1.4,1.74,Graduate
1,17,3,9500,1,1,133,1,Secondary,Secondary,128.5,1,0,0,1,0,1,18,11.1,0.6,2.02,Graduate
1,1,2,9773,1,1,159,1,Secondary,Basic,151.3,1,0,0,1,0,0,18,10.8,1.4,1.74,Graduate
1,7,1,9500,1,3,140,1,Basic,Basic,140,0,0,0,1,0,0,25,10.8,1.4,1.74,Graduate
1,42,1,9238,1,1,133.1,1,Secondary,Basic,134,0,0,0,1,0,0,21,7.6,2.6,0.32,Graduate
1,17,2,171,1,1,146,1,Higher,Higher,155.1,1,0,0,1,0,0,18,13.9,-0.3,0.79,Graduate
1,17,2,9070,1,1,126,1,Basic,Basic,129.9,1,0,0,1,1,1,19,12.4,0.5,1.79,Graduate
1,1,1,9238,1,1,137,1,Higher,Secondary,128.6,0,0,0,1,0,1,18,12.4,0.5,1.79,Graduate
1,1,6,9500,1,1,140,1,Basic,Basic,133.3,1,0,0,1,0,1,17,9.4,-0.8,-3.12,Graduate
1,1,3,9070,1,1,118,1,Higher,Higher,110,1,0,1,1,1,0,19,8.9,1.4,3.51,Graduate
1,1,1,9500,1,1,149,1,Basic,Basic,139.5,0,0,0,1,1,1,18,9.4,-0.8,-3.12,Graduate
1,17,2,9773,1,1,132,1,Basic,Basic,120.1,1,0,0,1,0,1,18,8.9,1.4,3.51,Graduate
4,39,1,9238,1,1,120,1,Basic,Basic,125.5,1,0,0,1,0,1,39,12.7,3.7,-1.7,Graduate
1,1,1,9085,1,1,143,1,Basic,Basic,133.4,1,0,0,1,0,0,19,12.4,0.5,1.79,Graduate
1,39,1,8014,0,1,133.1,1,Basic,Basic,97,0,0,0,1,0,1,35,10.8,1.4,1.74,Graduate
1,17,3,9238,1,1,133.1,1,Higher,Secondary,117,1,0,0,1,0,0,21,11.1,0.6,2.02,Graduate
1,1,1,9773,1,1,135,1,Secondary,Basic,129.4,1,0,0,1,0,0,18,11.1,0.6,2.02,Graduate
1,17,1,9238,1,1,135,1,Secondary,Basic,129.1,0,0,0,1,0,0,19,15.5,2.8,-4.06,Graduate
1,43,1,9003,1,1,125,1,Secondary,Basic,125,1,0,0,1,0,0,21,15.5,2.8,-4.06,Graduate
1,1,1,9853,1,1,145,1,Basic,Basic,146.8,0,0,0,1,0,0,18,7.6,2.6,0.32,Graduate
1,1,1,9147,1,1,135,1,Basic,Secondary,122.1,1,0,0,1,0,0,20,16.2,0.3,-0.92,Graduate
1,1,1,9500,1,1,132,1,Basic,Secondary,123.4,0,0,0,1,0,1,18,11.1,0.6,2.02,Graduate
1,1,2,9500,1,1,99,1,Secondary,Higher,100,1,0,0,1,1,0,19,13.9,-0.3,0.79,Graduate
1,18,1,9773,1,1,124,1,Basic,Basic,126.8,0,0,0,1,1,1,21,13.9,-0.3,0.79,Graduate
1,1,1,9238,1,1,141,1,Basic,Secondary,132.6,0,0,0,1,0,1,18,12.4,0.5,1.79,Graduate
1,17,3,9147,1,1,142,1,Basic,Basic,129.4,0,0,0,1,0,0,18,9.4,-0.8,-3.12,Graduate
1,44,1,9003,1,39,160,1,Basic,Basic,160,0,0,0,1,0,1,19,15.5,2.8,-4.06,Graduate
1,17,3,9147,1,1,135,1,Basic,Basic,121,1,0,0,1,1,1,18,13.9,-0.3,0.79,Graduate
2,1,4,9500,1,1,143,1,Basic,Basic,128.7,1,0,0,1,0,0,18,15.5,2.8,-4.06,Graduate
1,1,2,9773,1,1,140,1,Secondary,Secondary,136.9,1,0,0,1,0,1,19,16.2,0.3,-0.92,Graduate
1,17,2,9500,1,1,134,1,Basic,Basic,133.5,1,0,0,1,0,0,19,13.9,-0.3,0.79,Graduate
2,1,2,8014,0,1,110,1,Basic,Secondary,108.7,1,0,0,1,0,0,43,9.4,-0.8,-3.12,Graduate
1,17,4,9500,1,1,136,1,Secondary,Secondary,128.5,1,0,0,1,0,0,18,7.6,2.6,0.32,Graduate
1,17,4,9147,1,1,122,1,Basic,Basic,116.4,1,0,1,1,0,1,18,11.1,0.6,2.02,Graduate
2,39,1,9130,1,1,130,1,Secondary,Basic,154,1,0,0,1,1,0,37,10.8,1.4,1.74,Graduate
1,1,2,9500,1,1,136,1,Basic,Basic,140,1,0,0,1,0,0,20,7.6,2.6,0.32,Graduate
1,18,6,9500,1,1,141,1,Secondary,Basic,126.7,1,0,0,1,0,1,18,12.7,3.7,-1.7,Graduate
2,1,4,9500,1,1,140,1,Secondary,Basic,128,0,0,0,1,0,1,18,7.6,2.6,0.32,Graduate
1,42,1,9500,1,1,122,1,Higher,Higher,122,1,0,0,1,0,0,20,12.7,3.7,-1.7,Graduate
1,1,1,9238,1,1,147,1,Secondary,Basic,137.2,0,0,0,0,0,0,18,10.8,1.4,1.74,Graduate
1,17,6,9500,1,1,126,1,Basic,Basic,119.4,1,0,0,1,0,1,19,16.2,0.3,-0.92,Graduate
1,51,1,8014,0,2,110,1,Basic,Basic,110,0,0,0,1,1,0,42,11.1,0.6,2.02,Graduate
1,17,5,9500,1,1,144,1,Basic,Secondary,141,1,0,0,1,0,1,19,12.7,3.7,-1.7,Graduate
2,39,1,9556,1,19,133.1,1,Basic,Basic,123,0,0,0,1,0,0,31,12.4,0.5,1.79,Graduate
1,1,1,9147,1,1,160,1,Secondary,Basic,151.3,0,0,0,1,0,0,23,7.6,2.6,0.32,Graduate
1,17,1,9670,1,1,125,1,Basic,Basic,126.4,0,0,0,1,1,1,18,16.2,0.3,-0.92,Graduate
1,1,2,9773,1,1,140,1,Basic,Basic,126.4,1,0,0,1,1,1,18,12.7,3.7,-1.7,Graduate
1,1,1,9085,1,1,124,1,Higher,Secondary,117.4,1,0,0,1,0,0,19,10.8,1.4,1.74,Graduate
1,53,1,9254,1,42,110,1,Secondary,Secondary,111.8,1,0,0,1,0,1,21,8.9,1.4,3.51,Graduate
1,39,1,9147,1,1,150,1,Basic,Secondary,148.8,0,0,0,1,1,1,25,12.7,3.7,-1.7,Graduate
1,39,1,8014,0,1,133.1,1,Basic,Basic,112.5,0,0,0,1,0,1,30,10.8,1.4,1.74,Graduate
1,1,1,9238,1,1,135,1,Basic,Basic,136.1,1,0,0,1,0,1,18,12.4,0.5,1.79,Graduate
2,1,1,8014,0,1,150,1,Secondary,Basic,139.9,1,0,0,1,0,0,24,9.4,-0.8,-3.12,Graduate
1,51,1,171,1,1,128,1,Higher,Secondary,131.2,1,0,0,1,1,0,21,8.9,1.4,3.51,Graduate
1,1,2,9670,1,1,123,1,Basic,Secondary,117.8,1,0,0,1,0,0,18,10.8,1.4,1.74,Graduate
1,1,1,9147,1,1,146,1,Higher,Secondary,144.6,0,0,0,1,1,0,18,16.2,0.3,-0.92,Graduate
1,17,6,9500,1,1,132,1,Secondary,Basic,128,1,0,0,1,0,0,19,12.4,0.5,1.79,Graduate
1,1,1,9500,1,1,130,1,Higher,Higher,118.8,0,0,0,1,0,0,18,11.1,0.6,2.02,Graduate
1,17,2,9085,1,1,166,1,Secondary,Basic,158.7,0,0,0,1,0,0,18,11.1,0.6,2.02,Graduate
1,43,1,9070,1,1,134,1,Basic,Basic,132.7,1,0,0,1,1,0,22,15.5,2.8,-4.06,Graduate
1,43,1,9773,1,1,126,1,Secondary,Basic,110,0,0,1,1,0,0,20,12.4,0.5,1.79,Graduate
1,1,3,9070,1,1,132,1,Secondary,Higher,126.1,1,0,0,1,0,1,18,11.1,0.6,2.02,Graduate
1,1,4,171,1,1,146,1,Secondary,Secondary,151.3,1,0,0,1,0,1,19,8.9,1.4,3.51,Graduate
1,17,3,9500,1,1,143,1,Higher,Higher,129,1,0,0,1,1,0,19,13.9,-0.3,0.79,Graduate
1,1,1,9500,1,1,147,1,Basic,Basic,147.3,0,0,0,1,0,0,18,7.6,2.6,0.32,Graduate
1,1,1,9238,1,1,124,1,Secondary,Secondary,118.8,0,0,0,1,1,0,19,9.4,-0.8,-3.12,Graduate
1,17,1,9254,1,1,122,1,Secondary,Basic,130.4,1,0,0,1,0,0,18,11.1,0.6,2.02,Graduate
1,1,1,9147,1,1,158,1,Secondary,Basic,155.2,0,0,0,1,1,1,18,9.4,-0.8,-3.12,Graduate
1,1,3,9130,1,1,167,1,Basic,Basic,159.3,0,0,0,1,0,0,19,7.6,2.6,0.32,Graduate
1,1,1,9147,1,1,160,1,Basic,Basic,159.3,0,0,0,1,0,0,18,7.6,2.6,0.32,Graduate
1,17,3,9500,1,1,136,1,Basic,Basic,126,1,0,0,1,0,0,19,10.8,1.4,1.74,Graduate
1,1,1,9670,1,1,140,1,Basic,Basic,131.3,1,0,0,1,0,1,18,10.8,1.4,1.74,Graduate
1,17,1,8014,0,1,141,1,Unknown,Unknown,136.1,0,0,0,1,0,0,24,7.6,2.6,0.32,Graduate
1,17,3,9238,1,1,121,1,Secondary,Secondary,117.2,0,0,0,1,0,0,19,15.5,2.8,-4.06,Graduate
1,1,1,171,1,1,136,1,Basic,Basic,150.4,1,0,0,1,1,1,21,12.4,0.5,1.79,Graduate
1,1,1,9130,1,1,133,1,Higher,Secondary,126,0,0,0,1,1,0,18,7.6,2.6,0.32,Graduate
1,1,1,9500,1,1,132,1,Basic,Basic,122,1,0,0,1,0,1,20,10.8,1.4,1.74,Graduate
1,1,3,9500,1,1,147,1,Basic,Basic,134.8,1,0,0,1,0,0,18,7.6,2.6,0.32,Graduate
1,39,1,9556,1,1,140,1,Basic,Basic,105,1,0,0,1,0,1,36,8.9,1.4,3.51,Graduate
1,39,1,9254,1,1,130,1,Basic,Basic,113.5,0,0,0,1,0,1,24,12.4,0.5,1.79,Graduate
1,44,1,9085,1,39,160,1,Basic,Basic,160,1,0,0,1,0,0,20,12.4,0.5,1.79,Graduate
1,18,1,9556,1,1,140,1,Basic,Basic,122.8,0,0,0,1,0,1,19,12.7,3.7,-1.7,Graduate
1,1,1,9238,1,1,154,1,Basic,Basic,140.4,0,0,0,1,0,1,22,10.8,1.4,1.74,Graduate
1,17,1,9500,1,1,145,1,Basic,Basic,136.8,1,0,0,1,0,0,18,9.4,-0.8,-3.12,Graduate
1,1,1,171,1,1,174,1,Higher,Higher,157.9,0,0,0,1,0,0,18,13.9,-0.3,0.79,Graduate
2,7,1,8014,0,3,130,1,Basic,Basic,130,0,0,0,1,0,0,32,10.8,1.4,1.74,Graduate
1,1,5,9500,1,1,130,1,Basic,Secondary,122.1,1,0,0,1,0,1,19,12.4,0.5,1.79,Graduate
1,1,6,9500,1,1,136,1,Basic,Secondary,120.8,1,0,0,1,0,0,19,7.6,2.6,0.32,Graduate
1,17,1,9147,1,1,134,1,Basic,Basic,129.5,0,0,0,1,0,1,18,10.8,1.4,1.74,Graduate
1,7,1,9119,1,40,140,1,Higher,Secondary,140,0,0,0,1,1,0,23,11.1,0.6,2.02,Graduate
1,1,1,9147,1,1,130,1,Basic,Basic,123,0,0,0,1,0,0,18,15.5,2.8,-4.06,Graduate
1,17,1,9085,1,1,135,1,Secondary,Basic,125.6,1,0,0,1,0,0,18,12.7,3.7,-1.7,Graduate
1,17,1,9773,1,1,136,1,Higher,Secondary,132.5,1,0,0,1,0,0,19,10.8,1.4,1.74,Graduate
1,1,1,9238,1,1,163,1,Basic,Basic,155,0,0,0,1,0,1,21,9.4,-0.8,-3.12,Graduate
1,1,5,9254,1,1,128,1,Basic,Secondary,116.5,1,0,0,1,0,1,18,8.9,1.4,3.51,Graduate
1,1,4,9670,1,1,125,1,Higher,Basic,118,1,0,0,1,0,0,19,16.2,0.3,-0.92,Graduate
1,1,1,8014,0,1,133,1,Basic,Basic,135.5,0,0,0,1,0,0,34,10.8,1.4,1.74,Graduate
1,17,6,9119,1,1,124,1,Basic,Basic,126.1,1,0,0,1,1,0,20,7.6,2.6,0.32,Graduate
1,1,1,9070,1,1,144,1,Secondary,Secondary,127.2,1,0,0,1,0,1,20,10.8,1.4,1.74,Graduate
1,1,4,9238,1,1,130,1,Secondary,Basic,124.8,1,0,0,1,0,0,19,8.9,1.4,3.51,Graduate
1,17,1,9130,1,1,147,1,Higher,Secondary,141.8,1,0,0,1,0,0,19,13.9,-0.3,0.79,Graduate
2,39,1,9085,1,1,120,1,Basic,Basic,150,0,0,0,1,1,0,43,9.4,-0.8,-3.12,Graduate
1,44,1,9003,1,39,160,1,Higher,Secondary,160,1,0,0,0,0,0,20,16.2,0.3,-0.92,Graduate
1,17,1,9003,1,1,125,1,Higher,Higher,100,0,0,0,1,1,0,27,15.5,2.8,-4.06,Graduate
2,39,1,8014,0,1,140,1,Basic,Basic,128.5,0,0,0,1,0,1,38,9.4,-0.8,-3.12,Graduate
1,43,1,9070,1,1,135,1,Secondary,Basic,126.4,1,0,0,1,0,1,20,15.5,2.8,-4.06,Graduate
1,1,1,9238,1,1,151,1,Basic,Secondary,138.4,1,0,0,1,0,1,20,12.7,3.7,-1.7,Graduate
1,42,1,8014,0,1,150,1,Basic,Higher,148,0,0,0,1,0,0,26,9.4,-0.8,-3.12,Graduate
1,17,3,9238,1,1,141,1,Basic,Basic,125.6,1,0,0,1,0,1,19,8.9,1.4,3.51,Graduate
5,39,1,9238,1,1,130,1,Basic,Basic,146,0,0,0,1,1,0,34,12.4,0.5,1.79,Graduate
2,39,1,9991,0,1,133.1,1,Basic,Basic,168,0,0,0,1,1,0,29,11.1,0.6,2.02,Graduate
1,17,3,9500,1,1,139,1,Basic,Secondary,131.8,1,0,0,1,0,0,18,10.8,1.4,1.74,Graduate
1,1,1,9238,1,1,142,1,Basic,Basic,136.1,1,0,0,1,0,0,18,13.9,-0.3,0.79,Graduate
1,42,1,9670,1,1,130,1,Secondary,Secondary,116.3,1,0,0,1,0,1,20,12.7,3.7,-1.7,Graduate
1,17,5,9556,1,1,139,1,Basic,Basic,121.3,1,0,0,1,0,1,19,10.8,1.4,1.74,Graduate
1,1,1,9670,1,1,123,1,Basic,Basic,125.5,0,0,0,0,0,1,19,8.9,1.4,3.51,Graduate
1,1,1,9238,1,1,107,1,Higher,Secondary,104.2,1,0,0,1,0,0,20,11.1,0.6,2.02,Graduate
1,17,1,9238,1,1,144,1,Higher,Secondary,126.9,0,0,0,1,0,0,19,15.5,2.8,-4.06,Graduate
1,17,1,9147,1,1,137,1,Secondary,Higher,131.1,1,0,1,1,0,1,19,8.9,1.4,3.51,Graduate
2,43,1,9003,1,1,133.1,1,Basic,Basic,136,0,0,0,1,1,0,41,15.5,2.8,-4.06,Graduate
1,1,1,9238,1,1,142,1,Unknown,Basic,127.3,0,0,0,1,0,1,18,9.4,-0.8,-3.12,Graduate
1,1,1,9238,1,1,133.1,1,Secondary,Secondary,112,0,0,0,1,1,0,19,12.4,0.5,1.79,Graduate
1,1,5,9119,1,1,135,1,Basic,Basic,122.1,1,0,0,1,1,0,20,7.6,2.6,0.32,Graduate
1,1,3,9500,1,1,141,1,Basic,Basic,126,1,0,0,1,0,0,18,12.7,3.7,-1.7,Graduate
1,17,1,8014,0,1,125,1,Basic,Basic,122.2,1,0,1,1,0,0,19,10.8,1.4,1.74,Graduate
1,17,1,9070,1,1,132,1,Basic,Basic,138,0,0,0,1,1,1,18,12.4,0.5,1.79,Graduate
1,1,1,9238,1,1,105,1,Basic,Basic,106.1,1,0,0,1,0,0,20,11.1,0.6,2.02,Graduate
1,1,1,9238,1,1,164,1,Basic,Basic,149,1,0,0,1,0,1,23,10.8,1.4,1.74,Graduate
1,1,2,9500,1,1,97,1,Secondary,Basic,98.1,1,0,0,1,0,0,21,11.1,0.6,2.02,Graduate
4,43,1,9238,1,1,120,1,Basic,Basic,110,0,0,1,1,0,0,34,13.9,-0.3,0.79,Graduate
1,18,1,9500,1,1,143,1,Basic,Basic,116.5,1,0,0,1,0,1,20,15.5,2.8,-4.06,Graduate
1,1,1,9147,1,1,151,1,Secondary,Basic,137,1,0,0,1,1,0,18,8.9,1.4,3.51,Graduate
1,1,5,9500,1,1,145,1,Basic,Basic,125.5,1,0,0,1,0,1,18,9.4,-0.8,-3.12,Graduate
1,17,1,9147,1,1,127,1,Secondary,Basic,121.1,1,0,0,1,1,1,20,11.1,0.6,2.02,Graduate
1,1,1,9500,1,1,127,1,Higher,Basic,121.5,0,0,0,1,1,0,23,7.6,2.6,0.32,Graduate
1,18,3,9070,1,1,164,1,Secondary,Secondary,161.2,1,0,0,1,0,0,18,13.9,-0.3,0.79,Graduate
1,1,1,9500,1,1,129,1,Secondary,Secondary,120,0,0,0,1,1,0,20,12.7,3.7,-1.7,Graduate
1,1,3,9500,1,1,153,6,Basic,Basic,131.8,1,0,0,1,0,0,18,7.6,2.6,0.32,Graduate
2,1,1,9500,1,1,142,1,Basic,Basic,130.3,0,0,0,1,0,0,18,7.6,2.6,0.32,Graduate
1,17,1,9238,1,1,116,1,Basic,Basic,111.1,1,0,0,1,0,1,18,8.9,1.4,3.51,Graduate
1,1,1,9147,1,1,130,1,Secondary,Basic,123,0,0,0,1,0,1,18,12.7,3.7,-1.7,Graduate
1,1,3,9500,1,1,128,1,Secondary,Secondary,118.9,1,0,0,1,0,0,20,13.9,-0.3,0.79,Graduate
1,43,5,9238,1,1,101,24,Basic,Basic,119.9,1,0,1,0,0,0,22,9.4,-0.8,-3.12,Graduate
1,1,1,9238,1,1,139,1,Basic,Basic,126.1,0,0,0,1,0,1,19,12.7,3.7,-1.7,Graduate
1,43,1,9853,1,1,130,1,Higher,Secondary,124.6,0,0,0,1,1,0,37,12.4,0.5,1.79,Graduate
1,17,6,9556,1,1,118,1,Basic,Basic,117.8,1,0,0,1,0,1,19,11.1,0.6,2.02,Graduate
1,51,1,9670,1,1,126,1,Higher,Higher,111,0,0,1,1,1,0,21,11.1,0.6,2.02,Graduate
1,1,5,9500,1,1,141,1,Basic,Basic,126.3,1,0,0,1,0,0,20,12.7,3.7,-1.7,Graduate
1,7,1,9773,1,43,140,1,Basic,Secondary,140,0,0,0,1,1,0,25,11.1,0.6,2.02,Graduate
2,39,1,8014,0,1,140,1,Basic,Basic,121,0,0,0,1,0,0,50,10.8,1.4,1.74,Graduate
1,17,4,9773,1,1,121,1,Secondary,Basic,120.3,1,0,1,1,1,1,19,8.9,1.4,3.51,Graduate
1,1,1,9130,1,1,125,1,Higher,Higher,132.4,0,0,0,1,1,0,20,7.6,2.6,0.32,Graduate
1,44,1,9238,1,39,130,1,Basic,Basic,126.7,0,0,1,1,0,0,21,13.9,-0.3,0.79,Graduate
1,43,6,9238,1,1,129,1,Unknown,Unknown,125.2,0,0,0,1,0,1,23,9.4,-0.8,-3.12,Graduate
2,39,1,171,1,12,110,1,Basic,Basic,106,1,0,0,1,1,0,36,7.6,2.6,0.32,Graduate
1,17,3,9500,1,1,143,1,Basic,Secondary,133.8,1,0,0,1,0,0,18,7.6,2.6,0.32,Graduate
1,39,1,9003,1,1,130,1,Basic,Basic,140,0,0,0,1,0,0,26,15.5,2.8,-4.06,Graduate
5,17,5,9500,1,1,143,1,Basic,Basic,133.5,1,0,0,1,0,1,18,12.7,3.7,-1.7,Graduate
2,39,1,9991,0,1,120,1,Basic,Higher,168.2,0,0,0,1,1,0,45,12.4,0.5,1.79,Graduate
1,1,1,9773,1,1,142,1,Secondary,Basic,136.1,0,0,1,1,1,1,19,16.2,0.3,-0.92,Graduate
1,1,1,9773,1,1,152,1,Basic,Basic,139.1,0,0,0,1,0,1,19,16.2,0.3,-0.92,Graduate
1,1,2,9773,1,1,124,1,Higher,Higher,114.6,1,0,0,1,0,0,21,11.1,0.6,2.02,Graduate
1,1,1,9500,1,1,127,1,Basic,Basic,123.9,1,0,0,1,0,1,18,15.5,2.8,-4.06,Graduate
1,39,1,9500,1,1,130,1,Basic,Secondary,140,1,0,0,1,0,0,24,12.7,3.7,-1.7,Graduate
1,17,2,9238,1,1,132,1,Basic,Secondary,133.1,1,0,0,1,0,1,19,9.4,-0.8,-3.12,Graduate
1,17,1,9085,1,1,163,14,Basic,Basic,150.8,1,0,0,1,0,0,19,15.5,2.8,-4.06,Graduate
1,42,1,9500,1,1,124,1,Basic,Basic,124,0,0,0,1,0,0,23,9.4,-0.8,-3.12,Graduate
1,17,1,9147,1,1,118,1,Basic,Basic,122.2,0,0,0,1,0,0,19,11.1,0.6,2.02,Graduate
1,43,1,8014,0,1,145.7,22,Basic,Basic,145.7,1,0,0,1,0,0,25,13.9,-0.3,0.79,Graduate
1,17,5,9670,1,1,132,1,Basic,Basic,134.1,1,0,0,1,1,0,21,10.8,1.4,1.74,Graduate
1,1,4,9070,1,1,167,1,Secondary,Secondary,158.3,1,0,0,1,0,0,18,15.5,2.8,-4.06,Graduate
1,17,1,9119,1,1,148,1,Secondary,Basic,148.7,0,0,0,1,1,0,18,8.9,1.4,3.51,Graduate
1,17,1,9130,1,1,130,1,Secondary,Secondary,123.8,0,0,0,1,0,0,18,7.6,2.6,0.32,Graduate
1,1,1,9670,1,1,131,1,Secondary,Secondary,122.3,0,0,0,1,1,0,19,9.4,-0.8,-3.12,Graduate
1,17,1,171,1,1,158,1,Higher,Higher,151.4,1,0,0,0,0,0,19,8.9,1.4,3.51,Graduate
1,43,1,9773,1,1,123,1,Basic,Basic,134,0,0,0,1,0,1,20,12.4,0.5,1.79,Graduate
1,1,1,9500,1,1,132,1,Basic,Higher,126,1,0,0,1,0,0,19,7.6,2.6,0.32,Graduate
1,1,1,9254,1,1,132,1,Secondary,Basic,124.7,1,0,0,1,1,0,21,13.9,-0.3,0.79,Graduate
1,1,1,9500,1,1,134,1,Basic,Basic,121.2,0,0,0,1,0,0,19,15.5,2.8,-4.06,Graduate
1,17,5,9147,1,1,131,1,Basic,Basic,119.8,1,0,0,1,0,0,19,8.9,1.4,3.51,Graduate
1,17,2,9147,1,1,125,1,Basic,Basic,116.3,1,0,0,1,1,0,19,13.9,-0.3,0.79,Graduate
1,39,1,9773,1,12,120,1,Secondary,Secondary,129.8,1,0,0,1,1,0,52,9.4,-0.8,-3.12,Graduate
1,1,4,9500,1,1,147,1,Secondary,Secondary,124.5,1,0,0,1,0,1,19,10.8,1.4,1.74,Graduate
1,7,0,9003,1,3,130,1,Secondary,Basic,130,1,0,0,1,0,0,23,15.5,2.8,-4.06,Graduate
1,17,4,9085,1,1,123,1,Basic,Basic,124.4,1,0,0,1,0,0,19,15.5,2.8,-4.06,Graduate
5,7,1,9500,1,40,150,1,Basic,Basic,150,0,0,0,1,0,0,29,12.7,3.7,-1.7,Graduate
1,1,1,9500,1,1,130,1,Basic,Basic,135,0,0,0,1,0,0,19,7.6,2.6,0.32,Graduate
1,1,1,9773,1,1,159,1,Unknown,Basic,160.1,1,0,0,1,0,0,18,7.6,2.6,0.32,Graduate
1,1,4,9254,1,1,131,1,Basic,Basic,124,1,0,0,1,0,1,18,9.4,-0.8,-3.12,Graduate
1,1,2,9773,1,1,122,1,Basic,Basic,130.8,1,0,0,1,0,0,18,9.4,-0.8,-3.12,Graduate
1,17,2,9500,1,1,135,1,Basic,Basic,133.4,1,0,0,1,0,0,19,11.1,0.6,2.02,Graduate
1,1,4,9500,1,1,117,1,Secondary,Secondary,109.3,1,0,0,1,0,1,18,11.1,0.6,2.02,Graduate
1,17,1,9500,1,1,127,1,Basic,Basic,129.5,1,0,0,1,0,1,20,7.6,2.6,0.32,Graduate
1,51,1,9991,0,1,134,1,Secondary,Secondary,120.6,1,0,0,1,1,0,27,11.1,0.6,2.02,Graduate
1,1,2,9085,1,1,151,1,Higher,Higher,144.5,1,0,0,1,0,0,18,8.9,1.4,3.51,Graduate
1,1,1,9130,1,1,151,1,Higher,Secondary,151,1,0,0,1,0,0,18,16.2,0.3,-0.92,Graduate
1,16,3,9773,1,1,138,1,Basic,Basic,134.2,1,0,0,1,0,1,20,11.1,0.6,2.02,Graduate
1,1,2,9070,1,1,126,1,Basic,Basic,132,1,0,0,1,0,1,19,10.8,1.4,1.74,Graduate
1,1,1,9500,1,1,130,1,Secondary,Basic,129.1,1,0,0,1,0,0,18,15.5,2.8,-4.06,Graduate
1,39,1,9500,1,1,100,1,Basic,Basic,160,1,0,0,1,0,1,24,10.8,1.4,1.74,Graduate
1,1,1,9254,1,1,117,1,Secondary,Secondary,116.3,1,0,0,1,1,1,21,10.8,1.4,1.74,Graduate
1,1,1,9130,1,1,141,1,Secondary,Secondary,138.9,1,0,0,1,1,0,18,10.8,1.4,1.74,Graduate
1,17,1,9254,1,1,111,1,Basic,Basic,117.7,0,0,0,1,0,0,20,9.4,-0.8,-3.12,Graduate
1,1,2,9254,1,1,120,1,Basic,Basic,116.5,1,0,0,1,0,1,19,12.4,0.5,1.79,Graduate
2,1,1,9070,1,1,127,1,Secondary,Basic,123.2,0,0,0,1,0,1,20,11.1,0.6,2.02,Graduate
1,1,1,9670,1,1,113,1,Secondary,Basic,116.5,1,0,0,1,0,0,19,8.9,1.4,3.51,Graduate
1,1,6,171,1,1,134,1,Basic,Basic,126,1,0,0,1,0,1,18,9.4,-0.8,-3.12,Graduate
1,1,1,9670,1,1,150,1,Higher,Basic,139.5,0,0,0,1,1,1,20,12.7,3.7,-1.7,Graduate
1,1,4,9500,1,1,132,1,Secondary,Basic,121.8,1,0,0,1,0,1,19,12.7,3.7,-1.7,Graduate
1,17,1,9500,1,1,128,1,Basic,Basic,131.5,0,0,0,1,0,0,18,9.4,-0.8,-3.12,Graduate
1,17,3,9500,1,1,137,1,Basic,Basic,126.7,1,0,0,1,0,1,19,16.2,0.3,-0.92,Graduate
1,1,2,171,1,1,135,1,Basic,Basic,149,1,0,0,1,1,0,22,11.1,0.6,2.02,Graduate
1,18,1,9500,1,1,126,1,Basic,Basic,119.3,0,0,0,1,0,1,19,9.4,-0.8,-3.12,Graduate
1,1,1,9238,1,1,142,1,Secondary,Basic,128,0,0,0,1,0,1,19,16.2,0.3,-0.92,Graduate
1,17,1,9070,1,1,133.1,1,Basic,Basic,128,0,0,0,1,0,1,21,9.4,-0.8,-3.12,Graduate
1,18,3,9070,1,1,138,1,Basic,Basic,125.1,1,0,0,1,0,1,19,15.5,2.8,-4.06,Graduate
1,1,3,9773,1,1,135,1,Secondary,Secondary,130.1,1,0,0,1,0,0,18,15.5,2.8,-4.06,Graduate
1,1,2,9500,1,1,131,1,Basic,Basic,122.1,1,0,0,1,0,0,18,15.5,2.8,-4.06,Graduate
1,1,5,9500,1,1,139,1,Basic,Basic,130.5,1,0,0,1,0,0,19,10.8,1.4,1.74,Graduate
1,1,1,9254,1,1,123,1,Secondary,Basic,132.1,0,0,0,1,0,1,21,15.5,2.8,-4.06,Graduate
1,1,3,9085,1,1,142,1,Basic,Basic,155.3,0,0,0,1,0,0,19,7.6,2.6,0.32,Graduate
1,44,1,9003,1,39,170,1,Basic,Basic,170,1,0,1,1,1,0,21,12.4,0.5,1.79,Graduate
1,1,2,9254,1,1,137,1,Secondary,Basic,122.3,1,0,0,1,1,1,20,8.9,1.4,3.51,Graduate
1,17,4,9085,1,1,137,1,Basic,Basic,141.6,0,0,0,1,1,0,21,7.6,2.6,0.32,Graduate
2,1,1,9991,0,1,120,1,Basic,Basic,135,1,0,0,1,1,0,32,7.6,2.6,0.32,Graduate
2,39,1,9991,0,1,140,1,Basic,Basic,130.2,0,0,0,1,0,1,39,16.2,0.3,-0.92,Graduate
1,1,6,9500,1,1,137,1,Secondary,Higher,121.3,1,0,0,1,0,0,20,7.6,2.6,0.32,Graduate
1,1,2,9238,1,1,140,1,Basic,Basic,140.7,1,0,0,1,0,1,18,10.8,1.4,1.74,Graduate
1,1,3,9670,1,1,106,1,Higher,Secondary,105.7,1,0,0,1,1,0,19,8.9,1.4,3.51,Graduate
1,1,1,9085,1,1,130,1,Basic,Basic,122.6,0,0,0,1,0,0,18,7.6,2.6,0.32,Graduate
1,17,2,9853,1,1,125,1,Secondary,Basic,119.4,1,0,0,1,0,0,18,12.4,0.5,1.79,Graduate
1,5,1,9130,1,1,157,1,Higher,Higher,149.7,1,0,0,1,0,0,18,8.9,1.4,3.51,Graduate
1,17,2,9556,1,1,133.1,1,Basic,Basic,108,0,0,0,1,0,0,20,15.5,2.8,-4.06,Graduate
1,17,5,9147,1,1,131,1,Basic,Basic,128.9,0,0,0,1,0,1,18,16.2,0.3,-0.92,Graduate
1,17,1,8014,0,1,136,1,Basic,Basic,132.5,0,0,1,1,0,1,22,13.9,-0.3,0.79,Graduate
1,1,6,9500,1,1,133,1,Higher,Higher,126.2,1,0,0,1,0,0,19,15.5,2.8,-4.06,Graduate
1,17,1,171,1,1,143,1,Basic,Basic,156.3,1,0,0,1,1,1,19,11.1,0.6,2.02,Graduate
1,17,2,9147,1,1,146,1,Basic,Basic,143.9,0,0,0,1,0,0,18,13.9,-0.3,0.79,Graduate
1,1,1,9853,1,1,136,1,Basic,Basic,126.9,1,0,0,1,0,1,19,11.1,0.6,2.02,Graduate
1,1,4,9500,1,1,137,1,Basic,Basic,125,1,0,0,1,0,0,19,7.6,2.6,0.32,Graduate
4,39,1,8014,0,1,160,1,Basic,Basic,126,0,0,0,1,0,1,38,13.9,-0.3,0.79,Graduate
1,1,1,9238,1,1,128,1,Basic,Basic,116.5,1,0,0,1,0,1,19,12.4,0.5,1.79,Graduate
1,39,1,9991,0,1,150,1,Secondary,Basic,130.2,0,0,0,1,0,1,24,16.2,0.3,-0.92,Graduate
4,39,1,8014,0,1,133.1,1,Basic,Basic,143,0,0,0,1,1,0,37,12.7,3.7,-1.7,Graduate
1,1,1,9085,1,1,149,1,Basic,Basic,147.6,1,0,0,1,0,0,20,15.5,2.8,-4.06,Graduate
1,42,1,9500,1,1,120,1,Secondary,Higher,130,1,0,0,1,0,0,22,12.7,3.7,-1.7,Graduate
1,1,1,9254,1,1,121,1,Basic,Basic,117.5,1,0,0,1,0,0,18,16.2,0.3,-0.92,Graduate
1,1,3,9085,1,1,147,1,Basic,Basic,135.6,1,0,0,1,0,0,20,13.9,-0.3,0.79,Graduate
1,1,3,9773,1,1,130,1,Basic,Basic,123,1,0,0,1,0,0,18,12.7,3.7,-1.7,Graduate
1,1,1,9254,1,1,125,1,Basic,Basic,121.5,0,0,0,1,0,1,21,13.9,-0.3,0.79,Graduate
1,1,2,9773,1,1,148,1,Basic,Secondary,140,1,0,0,1,0,1,18,16.2,0.3,-0.92,Graduate
1,1,1,9070,1,1,128,1,Basic,Higher,126.3,1,0,0,1,0,0,19,15.5,2.8,-4.06,Graduate
1,1,1,9147,1,1,121,1,Basic,Basic,114,0,0,0,1,0,1,19,11.1,0.6,2.02,Graduate
1,1,1,9773,1,1,140,1,Basic,Basic,135.8,1,0,0,1,0,1,19,10.8,1.4,1.74,Graduate
1,1,1,9773,1,1,146,1,Secondary,Higher,135.2,1,0,0,1,1,0,18,9.4,-0.8,-3.12,Graduate
1,18,6,9500,1,1,124,1,Basic,Basic,117.8,0,0,0,1,0,1,20,10.8,1.4,1.74,Graduate
1,1,2,9500,1,1,119,1,Secondary,Secondary,115.2,1,0,0,1,0,1,20,13.9,-0.3,0.79,Graduate
1,17,1,9254,1,1,127,1,Higher,Basic,116.9,0,0,0,1,1,0,21,15.5,2.8,-4.06,Graduate
1,1,3,9500,1,1,114,1,Secondary,Secondary,114.5,1,0,0,1,0,1,19,12.4,0.5,1.79,Graduate
1,17,4,9238,1,1,140,1,Basic,Basic,130.2,1,0,0,1,0,1,18,12.7,3.7,-1.7,Graduate
1,43,2,9773,1,1,132,1,Basic,Basic,127.1,0,0,0,1,1,0,23,7.6,2.6,0.32,Graduate
1,1,1,9254,1,1,152,1,Basic,Basic,137,1,0,0,1,0,1,22,9.4,-0.8,-3.12,Graduate
1,1,1,9500,1,1,136,1,Basic,Basic,136,0,0,0,1,0,1,19,13.9,-0.3,0.79,Graduate
1,1,1,9500,1,1,143,1,Basic,Basic,133.9,0,0,0,1,0,0,18,12.4,0.5,1.79,Graduate
1,16,6,9147,1,1,128,1,Basic,Basic,116.5,1,0,0,1,0,0,20,7.6,2.6,0.32,Graduate
1,1,1,9238,1,1,136,1,Basic,Basic,121.7,0,1,0,1,0,1,20,16.2,0.3,-0.92,Graduate
1,39,1,9254,1,1,150,1,Basic,Basic,115,0,0,0,1,1,0,36,12.7,3.7,-1.7,Graduate
1,17,2,9500,1,1,131,1,Basic,Basic,129.8,1,0,0,1,0,0,20,12.4,0.5,1.79,Graduate
1,16,2,9147,1,1,139,1,Basic,Basic,123.7,1,0,0,1,0,1,22,16.2,0.3,-0.92,Graduate
1,1,6,9500,1,1,144,1,Secondary,Basic,127.5,1,0,0,1,0,1,18,12.7,3.7,-1.7,Graduate
1,1,1,9238,1,1,131,1,Basic,Secondary,135.9,1,0,0,1,0,0,18,9.4,-0.8,-3.12,Graduate
2,1,1,9003,1,1,131,1,Basic,Basic,118.4,0,0,0,1,0,0,20,13.9,-0.3,0.79,Graduate
1,17,6,9147,1,1,145,1,Basic,Basic,132,1,0,0,1,0,0,19,7.6,2.6,0.32,Graduate
1,17,1,9085,1,1,142,1,Higher,Basic,130.8,1,0,0,1,0,0,18,12.7,3.7,-1.7,Graduate
1,43,2,8014,0,3,130,1,Unknown,Unknown,130,0,0,0,1,1,0,31,7.6,2.6,0.32,Graduate
1,1,3,9500,1,1,143,1,Secondary,Secondary,129,1,0,0,1,1,0,18,10.8,1.4,1.74,Graduate
1,1,3,171,1,1,147,1,Secondary,Basic,151.6,1,0,0,1,0,0,19,13.9,-0.3,0.79,Graduate
1,17,1,9130,1,1,131,1,Basic,Secondary,118.4,0,0,0,1,0,0,19,7.6,2.6,0.32,Graduate
1,17,2,8014,0,1,133.1,1,Basic,Secondary,118,0,0,0,1,0,1,20,10.8,1.4,1.74,Graduate
1,1,1,9238,1,1,128,1,Basic,Basic,120.3,1,0,0,1,0,0,19,7.6,2.6,0.32,Graduate
1,17,1,9773,1,1,130,1,Basic,Basic,140.2,0,0,0,1,1,1,19,16.2,0.3,-0.92,Graduate
1,17,6,9238,1,1,117,1,Secondary,Basic,114.6,0,0,0,1,0,1,18,13.9,-0.3,0.79,Graduate
1,18,3,9500,1,1,145,1,Secondary,Secondary,133.6,1,0,0,1,0,0,18,11.1,0.6,2.02,Graduate
1,1,1,9070,1,1,148,1,Higher,Secondary,148,1,0,0,1,0,0,20,15.5,2.8,-4.06,Graduate
1,1,5,9070,1,1,124,1,Basic,Basic,113.9,1,0,0,1,0,0,20,7.6,2.6,0.32,Graduate
1,17,1,9556,1,1,133,1,Basic,Basic,124.4,1,0,0,1,0,1,18,15.5,2.8,-4.06,Graduate
1,1,4,9147,1,1,123,1,Secondary,Secondary,117.4,1,0,0,1,0,1,18,8.9,1.4,3.51,Graduate
1,1,2,9500,1,1,124,1,Basic,Basic,116.5,1,0,0,1,0,1,20,11.1,0.6,2.02,Graduate
1,1,5,9500,1,1,137,1,Basic,Basic,126.5,1,0,0,1,0,0,18,9.4,-0.8,-3.12,Graduate
1,1,1,9500,1,1,133,1,Secondary,Basic,121.5,1,0,0,1,0,1,20,11.1,0.6,2.02,Graduate
2,43,1,9991,0,3,130,1,Basic,Basic,130,0,0,0,1,0,0,41,12.7,3.7,-1.7,Graduate
1,1,1,9773,1,1,111,1,Basic,Basic,110,1,0,0,1,0,0,18,11.1,0.6,2.02,Graduate
1,1,1,9773,1,1,140,1,Secondary,Basic,141.1,1,0,0,1,0,0,18,9.4,-0.8,-3.12,Graduate
1,53,1,9085,1,42,160,1,Basic,Basic,160,1,0,0,1,0,0,20,8.9,1.4,3.51,Graduate
1,1,1,9147,1,1,102,1,Basic,Basic,99.6,1,0,0,1,0,1,21,11.1,0.6,2.02,Graduate
2,43,1,8014,0,1,133.1,1,Unknown,Unknown,100,0,0,0,1,0,1,35,9.4,-0.8,-3.12,Graduate
1,15,1,9238,1,1,150,26,Basic,Secondary,146.5,1,0,1,0,1,0,22,13.9,-0.3,0.79,Graduate
1,1,3,9254,1,1,122,1,Basic,Basic,124.5,1,0,0,1,0,0,19,7.6,2.6,0.32,Graduate
1,39,1,8014,0,1,130,1,Basic,Basic,103.5,0,0,0,1,0,1,33,12.7,3.7,-1.7,Graduate
1,44,1,9085,1,39,150,6,Higher,Higher,150,0,0,0,1,0,0,20,12.4,0.5,1.79,Graduate
1,1,1,9238,1,1,132,1,Unknown,Unknown,119.1,1,0,0,1,0,0,18,7.6,2.6,0.32,Graduate
2,39,1,9070,1,1,160,1,Higher,Secondary,126.5,0,0,0,1,0,1,30,13.9,-0.3,0.79,Graduate
1,44,1,9238,1,39,140,1,Basic,Basic,144.3,1,0,0,1,0,1,19,12.4,0.5,1.79,Graduate
1,1,1,9670,1,1,141,1,Secondary,Secondary,126.3,0,0,0,1,1,1,18,13.9,-0.3,0.79,Graduate
2,39,1,9500,1,1,133.1,1,Secondary,Basic,120,0,0,0,1,1,1,34,12.7,3.7,-1.7,Graduate
1,1,1,9147,1,1,133.1,1,Basic,Basic,95,0,0,0,1,0,0,20,11.1,0.6,2.02,Graduate
1,39,1,9070,1,1,130,1,Secondary,Secondary,112,1,0,0,1,1,1,24,15.5,2.8,-4.06,Graduate
1,1,4,9500,1,1,136,1,Basic,Secondary,133.9,1,0,0,1,0,0,18,15.5,2.8,-4.06,Graduate
1,39,1,9003,1,1,133.1,1,Secondary,Basic,145.8,0,0,0,1,1,0,34,12.4,0.5,1.79,Graduate
1,53,1,9147,1,42,140,1,Secondary,Secondary,142.2,0,0,0,1,1,1,21,8.9,1.4,3.51,Graduate
2,39,1,8014,0,19,100,1,Unknown,Unknown,100,0,0,0,1,0,0,46,7.6,2.6,0.32,Graduate
1,1,3,9500,1,1,132,1,Basic,Basic,119.3,1,0,0,1,0,0,19,10.8,1.4,1.74,Graduate
2,39,1,8014,0,3,110,1,Basic,Basic,160.5,0,0,0,1,0,0,38,13.9,-0.3,0.79,Graduate
1,17,1,9070,1,1,137,1,Secondary,Secondary,131.8,0,0,0,1,0,1,22,9.4,-0.8,-3.12,Graduate
1,1,3,9556,1,1,132,1,Basic,Basic,119,1,0,0,1,0,0,19,12.7,3.7,-1.7,Graduate
1,43,1,9773,1,1,122,1,Secondary,Secondary,126.9,0,0,0,1,0,0,21,7.6,2.6,0.32,Graduate
1,1,1,9254,1,1,140,1,Basic,Secondary,140.9,1,0,0,1,0,1,18,12.7,3.7,-1.7,Graduate
1,17,5,9085,1,1,118,1,Secondary,Basic,122.2,1,0,0,1,0,1,20,13.9,-0.3,0.79,Graduate
1,1,1,9500,1,1,147,1,Basic,Basic,142,1,0,0,1,0,0,18,7.6,2.6,0.32,Graduate
1,44,1,8014,0,39,150,1,Secondary,Basic,146.7,0,0,0,1,0,1,21,12.4,0.5,1.79,Graduate
1,1,1,9500,1,1,133,1,Basic,Basic,123.2,0,0,0,1,0,0,18,16.2,0.3,-0.92,Graduate
1,10,1,9085,1,1,134,1,Basic,Basic,134,1,0,0,1,0,0,22,12.7,3.7,-1.7,Graduate
1,1,3,9773,1,1,138,1,Higher,Secondary,135.9,1,0,0,1,0,0,18,13.9,-0.3,0.79,Graduate
1,17,1,9238,1,1,120,1,Basic,Basic,113,1,0,0,1,0,1,20,13.9,-0.3,0.79,Graduate
1,17,2,9773,1,1,142,1,Basic,Basic,139.9,0,0,0,1,0,1,18,13.9,-0.3,0.79,Graduate
1,18,2,9500,1,1,131,1,Secondary,Higher,121.2,1,0,0,1,0,0,18,16.2,0.3,-0.92,Graduate
2,39,1,9500,1,1,140,1,Basic,Basic,127.3,0,0,0,1,1,0,26,10.8,1.4,1.74,Graduate
5,7,1,9147,1,40,110,1,Basic,Basic,110,0,0,0,1,0,0,23,15.5,2.8,-4.06,Graduate
1,1,4,9500,1,1,142,1,Secondary,Higher,133,0,0,0,1,0,1,20,10.8,1.4,1.74,Graduate
1,17,4,9500,1,1,146,1,Higher,Secondary,140,1,0,0,1,0,0,18,12.7,3.7,-1.7,Graduate
1,1,1,9070,1,1,130,1,Basic,Secondary,120.2,1,0,0,1,1,0,22,12.7,3.7,-1.7,Graduate
1,1,1,9238,1,1,130,1,Basic,Basic,136.3,1,0,0,1,1,0,18,10.8,1.4,1.74,Graduate
1,17,3,171,1,1,125,1,Basic,Basic,120.5,1,0,0,1,1,0,22,12.4,0.5,1.79,Graduate
1,1,3,9773,1,1,123,1,Secondary,Secondary,125.1,1,0,1,1,1,1,18,11.1,0.6,2.02,Graduate
1,17,1,9991,0,40,127,1,Basic,Basic,124.9,0,0,0,1,0,0,29,16.2,0.3,-0.92,Graduate
1,1,1,9773,1,1,121,1,Secondary,Basic,114.4,0,0,0,1,0,1,18,11.1,0.6,2.02,Graduate
1,1,1,9003,1,1,148,1,Secondary,Basic,143.5,0,0,1,1,1,0,18,8.9,1.4,3.51,Graduate
1,1,1,9238,1,1,142,1,Secondary,Basic,127.7,0,0,0,1,0,1,20,13.9,-0.3,0.79,Graduate
1,1,1,9238,1,1,128,1,Basic,Basic,127.3,1,0,0,1,0,1,19,16.2,0.3,-0.92,Graduate
1,1,1,9238,1,1,108,1,Basic,Basic,110.5,1,0,0,1,0,1,22,12.4,0.5,1.79,Graduate
1,17,3,171,1,1,147,1,Basic,Secondary,137.6,1,0,0,1,0,1,20,12.7,3.7,-1.7,Graduate
1,17,2,9991,0,1,116,1,Basic,Basic,118.5,0,0,0,1,1,0,23,7.6,2.6,0.32,Graduate
1,16,1,9070,1,1,125,1,Secondary,Secondary,120.8,1,0,0,1,0,0,18,12.4,0.5,1.79,Graduate
1,1,3,9773,1,1,115,1,Basic,Secondary,116.1,1,0,0,1,1,0,19,12.4,0.5,1.79,Graduate
1,1,1,9238,1,1,137,1,Basic,Secondary,132.8,0,0,0,1,1,0,19,10.8,1.4,1.74,Graduate
1,17,2,9254,1,1,116,1,Basic,Basic,116,1,0,0,1,0,0,19,8.9,1.4,3.51,Graduate
1,44,1,9070,1,39,120,1,Secondary,Basic,116.3,1,1,0,1,1,1,21,12.4,0.5,1.79,Graduate
1,1,1,9670,1,1,157,1,Basic,Basic,146.2,1,0,0,1,0,1,20,11.1,0.6,2.02,Graduate
1,1,2,9147,1,1,131,1,Secondary,Secondary,118.8,0,0,0,1,1,1,18,12.4,0.5,1.79,Graduate
1,43,2,9670,1,1,125,1,Basic,Basic,106.6,1,0,0,1,0,0,20,10.8,1.4,1.74,Dropout_Enrolled
1,51,1,9085,1,40,120,1,Higher,Higher,125,0,0,0,1,0,0,28,11.1,0.6,2.02,Dropout_Enrolled
1,51,1,33,1,1,130,1,Basic,Basic,117.7,0,0,0,1,0,0,34,11.1,0.6,2.02,Dropout_Enrolled
1,1,4,9254,1,1,132,1,Secondary,Basic,124.7,1,0,0,1,0,0,19,7.6,2.6,0.32,Dropout_Enrolled
2,39,1,9500,1,19,133.1,1,Basic,Basic,170,0,0,0,1,1,0,36,16.2,0.3,-0.92,Dropout_Enrolled
1,1,4,9773,1,1,122,1,Higher,Secondary,119.6,1,0,0,1,0,0,19,11.1,0.6,2.02,Dropout_Enrolled
1,43,1,9147,1,1,123,1,Basic,Basic,110,0,0,0,1,1,0,25,9.4,-0.8,-3.12,Dropout_Enrolled
1,39,1,8014,0,1,133.1,1,Unknown,Unknown,100,1,0,0,1,0,0,27,7.6,2.6,0.32,Dropout_Enrolled
2,7,1,9500,1,3,120,1,Basic,Basic,120,1,0,0,1,0,0,45,13.9,-0.3,0.79,Dropout_Enrolled
1,39,1,8014,0,1,133.1,1,Unknown,Unknown,97.5,1,0,0,1,1,0,29,7.6,2.6,0.32,Dropout_Enrolled
1,44,1,9003,1,39,150,1,Higher,Basic,150,0,0,0,1,1,0,20,15.5,2.8,-4.06,Dropout_Enrolled
1,1,1,9147,1,1,118,1,Secondary,Higher,117.3,1,0,0,1,0,0,19,8.9,1.4,3.51,Dropout_Enrolled
1,17,2,9119,1,1,127,1,Basic,Secondary,121.1,1,0,0,1,1,1,18,8.9,1.4,3.51,Dropout_Enrolled
1,1,1,9238,1,1,135,1,Secondary,Basic,122.1,0,1,1,0,1,0,19,8.9,1.4,3.51,Dropout_Enrolled
1,1,5,9500,1,1,143,1,Basic,Basic,123.3,1,0,0,1,1,0,18,7.6,2.6,0.32,Dropout_Enrolled
1,7,1,8014,0,40,120,1,Basic,Basic,120,0,0,0,1,0,0,36,8.9,1.4,3.51,Dropout_Enrolled
1,17,1,9070,1,1,122,1,Secondary,Secondary,123.8,1,0,1,0,0,1,18,12.7,3.7,-1.7,Dropout_Enrolled
1,1,1,9254,1,1,178,1,Higher,Secondary,157.7,0,0,0,1,1,0,34,15.5,2.8,-4.06,Dropout_Enrolled
1,17,1,171,1,1,128,1,Secondary,Secondary,134.7,0,0,0,0,1,0,19,10.8,1.4,1.74,Dropout_Enrolled
1,39,1,9130,1,9,133.1,1,Unknown,Basic,107.5,0,0,0,1,1,0,29,7.6,2.6,0.32,Dropout_Enrolled
1,44,1,9003,1,39,130,1,Basic,Basic,130,0,0,0,1,1,0,25,15.5,2.8,-4.06,Dropout_Enrolled
1,39,1,9556,1,19,100,1,Basic,Basic,120,0,0,0,1,0,0,29,12.7,3.7,-1.7,Dropout_Enrolled
1,1,3,9238,1,1,124,1,Basic,Secondary,116,1,0,1,1,0,0,19,13.9,-0.3,0.79,Dropout_Enrolled
1,17,6,9254,1,1,108,1,Secondary,Basic,112.2,1,0,0,1,1,0,19,9.4,-0.8,-3.12,Dropout_Enrolled
1,1,1,9238,1,1,133,1,Unknown,Basic,120.4,0,0,0,0,0,0,21,9.4,-0.8,-3.12,Dropout_Enrolled
1,17,3,9085,1,1,130,1,Basic,Basic,121.3,1,0,0,1,0,0,21,9.4,-0.8,-3.12,Dropout_Enrolled
1,44,1,9003,1,39,140,1,Basic,Basic,140,1,0,0,0,1,0,21,16.2,0.3,-0.92,Dropout_Enrolled
1,1,2,9119,1,1,149,1,Basic,Basic,141,0,0,0,1,1,0,18,7.6,2.6,0.32,Dropout_Enrolled
1,39,1,9003,1,1,133.1,1,Secondary,Secondary,120,0,0,0,0,1,0,24,13.9,-0.3,0.79,Dropout_Enrolled
1,39,1,9254,1,3,133.1,1,Basic,Basic,130.5,0,0,0,1,0,0,38,15.5,2.8,-4.06,Dropout_Enrolled
1,1,1,9085,1,1,150,1,Basic,Basic,132.1,1,0,1,1,0,0,29,12.7,3.7,-1.7,Dropout_Enrolled
1,1,1,9853,1,1,126,1,Higher,Secondary,116.9,1,1,0,1,0,0,18,13.9,-0.3,0.79,Dropout_Enrolled
1,39,2,9556,1,1,130,1,Basic,Basic,110,0,0,0,1,1,1,24,12.7,3.7,-1.7,Dropout_Enrolled
1,1,4,9670,1,1,127,1,Secondary,Secondary,116.5,1,0,0,1,0,0,20,16.2,0.3,-0.92,Dropout_Enrolled
1,1,1,9254,1,1,129,1,Secondary,Secondary,126.2,0,0,1,0,0,1,21,8.9,1.4,3.51,Dropout_Enrolled
1,44,1,9085,1,1,150,1,Basic,Secondary,150,1,0,0,1,0,0,21,10.8,1.4,1.74,Dropout_Enrolled
2,39,1,9556,1,1,120,1,Basic,Basic,150,0,0,0,0,0,0,50,12.7,3.7,-1.7,Dropout_Enrolled
1,1,1,9238,1,1,140,1,Basic,Basic,132,0,0,0,1,1,0,19,16.2,0.3,-0.92,Dropout_Enrolled
1,51,1,9119,1,1,136,1,Secondary,Basic,133.6,1,0,0,1,1,0,20,11.1,0.6,2.02,Dropout_Enrolled
1,17,1,9238,1,1,132,1,Basic,Basic,123.6,1,0,0,1,0,0,18,7.6,2.6,0.32,Dropout_Enrolled
1,1,1,9085,1,1,148,1,Basic,Basic,131.6,0,0,0,1,1,1,18,11.1,0.6,2.02,Dropout_Enrolled
1,17,1,9254,1,1,118,1,Basic,Unknown,122.2,1,0,0,1,0,0,22,7.6,2.6,0.32,Dropout_Enrolled
1,39,1,9773,1,9,133.1,1,Basic,Secondary,102,1,0,0,1,1,0,28,7.6,2.6,0.32,Dropout_Enrolled
1,1,1,9500,1,1,125,1,Basic,Basic,122,1,0,1,1,0,0,19,11.1,0.6,2.02,Dropout_Enrolled
1,39,1,9991,0,1,140,1,Secondary,Basic,154.5,0,0,0,1,0,0,26,16.2,0.3,-0.92,Dropout_Enrolled
1,39,1,9085,1,1,130,1,Higher,Secondary,120,0,0,0,0,0,0,26,11.1,0.6,2.02,Dropout_Enrolled
1,1,2,9254,1,1,120,1,Basic,Basic,115.1,1,0,0,0,1,0,21,9.4,-0.8,-3.12,Dropout_Enrolled
1,43,1,9238,1,1,122,1,Basic,Basic,114.3,1,0,0,1,0,0,22,9.4,-0.8,-3.12,Dropout_Enrolled
1,51,1,9238,1,1,141,1,Secondary,Secondary,125,0,0,0,1,1,0,22,11.1,0.6,2.02,Dropout_Enrolled
1,17,3,9085,1,1,120,1,Basic,Basic,111.3,0,0,0,1,0,0,20,11.1,0.6,2.02,Dropout_Enrolled
1,1,2,9773,1,1,121,1,Basic,Basic,122.8,0,0,0,1,1,0,19,12.4,0.5,1.79,Dropout_Enrolled
5,39,1,9147,1,1,133.1,1,Secondary,Basic,114,0,0,0,0,1,0,29,8.9,1.4,3.51,Dropout_Enrolled
1,44,1,9119,1,39,150,1,Basic,Higher,150,0,0,0,1,1,0,20,12.7,3.7,-1.7,Dropout_Enrolled
2,39,1,9119,1,19,133.1,1,Basic,Basic,100,0,0,0,1,1,0,36,16.2,0.3,-0.92,Dropout_Enrolled
1,1,1,9254,1,1,143,1,Higher,Basic,133.2,1,0,0,1,0,0,19,10.8,1.4,1.74,Dropout_Enrolled
1,17,1,9147,1,1,123,1,Secondary,Basic,122,0,0,0,1,1,0,19,8.9,1.4,3.51,Dropout_Enrolled
1,43,1,9670,1,1,141,1,Higher,Higher,133.3,1,0,0,1,1,0,18,13.9,-0.3,0.79,Dropout_Enrolled
1,1,4,9773,1,1,137,1,Higher,Basic,139.8,1,1,0,1,0,0,18,10.8,1.4,1.74,Dropout_Enrolled
1,1,1,9085,1,1,123,1,Basic,Basic,127.2,0,0,1,0,1,0,20,7.6,2.6,0.32,Dropout_Enrolled
1,1,6,9147,1,1,121,1,Higher,Basic,116.8,0,0,0,1,1,0,20,13.9,-0.3,0.79,Dropout_Enrolled
1,7,1,9119,1,3,120,1,Basic,Basic,120,0,0,0,0,1,0,40,12.7,3.7,-1.7,Dropout_Enrolled
1,44,1,9085,1,39,160,1,Secondary,Secondary,160,1,1,0,0,1,0,19,12.4,0.5,1.79,Dropout_Enrolled
1,5,1,9147,1,1,126,1,Basic,Basic,117.3,1,0,0,1,0,0,19,13.9,-0.3,0.79,Dropout_Enrolled
1,1,6,9500,1,1,119,1,Secondary,Secondary,115,1,0,0,1,1,1,20,11.1,0.6,2.02,Dropout_Enrolled
1,39,1,9119,1,1,110,1,Secondary,Secondary,125.9,0,0,0,1,1,0,34,10.8,1.4,1.74,Dropout_Enrolled
1,17,6,9500,1,1,142,1,Basic,Basic,131.9,1,0,0,1,0,0,19,13.9,-0.3,0.79,Dropout_Enrolled
1,1,1,9085,1,1,123,1,Secondary,Secondary,116.7,1,0,0,1,1,1,20,12.4,0.5,1.79,Dropout_Enrolled
1,1,1,9853,1,1,146,1,Basic,Basic,145.3,1,0,0,1,0,1,18,9.4,-0.8,-3.12,Dropout_Enrolled
1,7,1,33,1,40,120,1,Basic,Basic,120,1,0,1,0,1,0,25,11.1,0.6,2.02,Dropout_Enrolled
1,39,1,9991,0,19,133.1,1,Basic,Basic,105.3,0,0,1,1,0,0,28,12.4,0.5,1.79,Dropout_Enrolled
1,17,1,9773,1,1,127,1,Secondary,Secondary,129.8,0,0,0,0,1,0,20,10.8,1.4,1.74,Dropout_Enrolled
1,39,1,8014,0,1,133.1,1,Secondary,Secondary,116.5,0,0,0,1,1,1,24,12.4,0.5,1.79,Dropout_Enrolled
2,7,1,8014,0,3,130,1,Basic,Basic,140,0,0,0,0,0,0,59,10.8,1.4,1.74,Dropout_Enrolled
1,39,1,9500,1,40,130,1,Basic,Basic,130,0,0,0,1,0,0,27,12.7,3.7,-1.7,Dropout_Enrolled
2,39,1,9991,0,1,150,1,Secondary,Higher,146,0,0,0,1,1,0,34,12.7,3.7,-1.7,Dropout_Enrolled
1,44,1,9070,1,39,120,1,Basic,Secondary,120,1,0,0,1,1,0,23,16.2,0.3,-0.92,Dropout_Enrolled
1,5,2,9853,1,1,122,1,Basic,Basic,112.6,1,0,0,1,0,0,22,12.7,3.7,-1.7,Dropout_Enrolled
1,44,1,9085,1,39,140,1,Secondary,Secondary,140,1,0,0,1,0,0,20,13.9,-0.3,0.79,Dropout_Enrolled
1,1,2,9119,1,1,126,1,Secondary,Basic,122.5,1,0,0,1,1,0,20,8.9,1.4,3.51,Dropout_Enrolled
1,39,1,9003,1,12,133.1,1,Basic,Secondary,130,0,0,0,1,1,0,29,15.5,2.8,-4.06,Dropout_Enrolled
1,1,1,9147,1,1,135,1,Secondary,Basic,130.1,1,0,0,1,0,0,18,9.4,-0.8,-3.12,Dropout_Enrolled
1,17,1,9085,1,1,109,1,Basic,Basic,104.1,1,0,1,0,0,1,21,15.5,2.8,-4.06,Dropout_Enrolled
1,39,1,33,1,1,133.1,1,Basic,Basic,96.1,0,0,0,1,1,0,25,12.4,0.5,1.79,Dropout_Enrolled
1,17,6,9119,1,1,129,1,Basic,Secondary,117.1,1,0,0,1,1,0,19,7.6,2.6,0.32,Dropout_Enrolled
1,39,1,9500,1,1,110,1,Basic,Basic,130,0,0,1,0,0,0,32,16.2,0.3,-0.92,Dropout_Enrolled
1,1,2,9773,1,1,132,1,Basic,Secondary,124.3,1,0,0,1,0,0,19,10.8,1.4,1.74,Dropout_Enrolled
1,1,1,9119,1,1,128,1,Basic,Basic,124.5,1,0,0,1,1,0,19,7.6,2.6,0.32,Dropout_Enrolled
2,51,1,8014,0,19,133.1,1,Basic,Basic,104,0,0,1,1,0,0,42,11.1,0.6,2.02,Dropout_Enrolled
1,39,1,9130,1,19,133.1,1,Unknown,Unknown,96,0,0,0,1,1,0,31,7.6,2.6,0.32,Dropout_Enrolled
1,17,3,9119,1,1,115,1,Higher,Secondary,116.1,1,0,0,0,1,0,18,12.4,0.5,1.79,Dropout_Enrolled
1,44,1,9003,1,39,140,1,Basic,Basic,140,0,0,0,1,1,0,19,13.9,-0.3,0.79,Dropout_Enrolled
1,39,1,8014,0,19,133.1,1,Basic,Basic,100,0,0,0,1,0,0,38,13.9,-0.3,0.79,Dropout_Enrolled
1,17,5,9238,1,1,130,1,Basic,Secondary,130,1,0,0,1,0,0,20,9.4,-0.8,-3.12,Dropout_Enrolled
1,17,4,9119,1,1,122,62,Secondary,Secondary,121,1,0,0,1,1,0,20,8.9,1.4,3.51,Dropout_Enrolled
1,1,2,9147,1,1,130,1,Basic,Basic,117.8,0,0,1,1,0,1,19,12.7,3.7,-1.7,Dropout_Enrolled
1,7,1,9003,1,3,140,1,Higher,Basic,140,0,0,0,0,1,0,35,15.5,2.8,-4.06,Dropout_Enrolled
1,43,1,9991,0,1,120,1,Basic,Basic,107,0,0,0,0,1,0,47,12.7,3.7,-1.7,Dropout_Enrolled
1,1,1,9773,1,1,128,1,Basic,Secondary,124.2,1,0,0,1,0,0,18,15.5,2.8,-4.06,Dropout_Enrolled
1,1,1,9853,1,1,129,1,Basic,Basic,138.1,0,0,0,1,0,0,19,7.6,2.6,0.32,Dropout_Enrolled
1,39,2,9119,1,1,120,1,Basic,Basic,128,0,0,0,1,1,0,30,7.6,2.6,0.32,Dropout_Enrolled
1,17,1,9670,1,1,127,1,Higher,Higher,121.4,0,0,0,1,1,0,18,15.5,2.8,-4.06,Dropout_Enrolled
1,17,1,9853,1,1,112,1,Higher,Basic,106.1,1,0,0,1,0,0,19,15.5,2.8,-4.06,Dropout_Enrolled
1,1,2,9853,1,1,131,1,Secondary,Secondary,121.9,1,0,0,1,0,0,20,12.7,3.7,-1.7,Dropout_Enrolled
1,7,1,9556,1,4,190,1,Higher,Higher,190,1,0,0,1,1,0,43,11.1,0.6,2.02,Dropout_Enrolled
1,1,3,9670,1,1,121,1,Higher,Basic,122.4,1,0,0,1,1,0,19,9.4,-0.8,-3.12,Dropout_Enrolled
1,17,5,9119,1,1,131,1,Basic,Basic,123.3,1,0,0,1,1,1,19,8.9,1.4,3.51,Dropout_Enrolled
1,1,1,9670,1,1,119,1,Secondary,Basic,115.5,1,0,0,1,0,0,19,10.8,1.4,1.74,Dropout_Enrolled
2,39,1,9003,1,1,133.1,1,Basic,Basic,107.5,0,0,0,0,0,0,35,15.5,2.8,-4.06,Dropout_Enrolled
1,1,1,9147,1,1,130,1,Basic,Basic,124.8,0,0,0,1,0,0,19,13.9,-0.3,0.79,Dropout_Enrolled
1,17,5,9119,1,1,126,1,Basic,Basic,116.9,1,0,1,1,1,0,20,11.1,0.6,2.02,Dropout_Enrolled
2,39,1,9130,1,1,150,1,Basic,Basic,130,0,0,0,0,1,0,31,9.4,-0.8,-3.12,Dropout_Enrolled
1,1,1,9254,1,1,145,1,Secondary,Basic,131.7,1,0,0,1,0,1,21,10.8,1.4,1.74,Dropout_Enrolled
1,17,4,9254,1,1,133,1,Basic,Basic,128.5,1,0,0,1,0,1,18,7.6,2.6,0.32,Dropout_Enrolled
1,18,4,9773,1,1,130,1,Basic,Basic,121.3,1,0,0,1,0,0,20,15.5,2.8,-4.06,Dropout_Enrolled
1,39,1,9147,1,1,133.1,41,Basic,Basic,134.8,0,0,0,1,0,0,24,16.2,0.3,-0.92,Dropout_Enrolled
2,39,1,9500,1,19,133.1,1,Basic,Basic,120.9,1,0,0,1,0,0,39,11.1,0.6,2.02,Dropout_Enrolled
1,7,1,9991,0,3,130,1,Basic,Basic,130,0,0,0,1,1,0,31,12.7,3.7,-1.7,Dropout_Enrolled
1,1,1,171,1,1,163,1,Secondary,Secondary,149.7,1,0,0,1,0,1,18,13.9,-0.3,0.79,Dropout_Enrolled
1,1,1,171,1,1,131,1,Basic,Basic,134.9,1,0,1,1,0,0,20,16.2,0.3,-0.92,Dropout_Enrolled
1,43,1,9254,1,1,110,1,Secondary,Basic,125,0,0,0,0,1,0,31,7.6,2.6,0.32,Dropout_Enrolled
2,44,1,9119,1,39,160,1,Basic,Basic,160,0,0,1,1,1,0,41,12.4,0.5,1.79,Dropout_Enrolled
1,43,1,9991,0,1,120,1,Basic,Basic,100,0,0,0,1,0,0,34,13.9,-0.3,0.79,Dropout_Enrolled
1,1,1,9147,1,1,136,1,Secondary,Higher,137.1,0,0,0,1,1,0,20,12.7,3.7,-1.7,Dropout_Enrolled
1,18,1,9853,1,1,133.1,1,Secondary,Basic,106,1,0,1,1,0,0,21,8.9,1.4,3.51,Dropout_Enrolled
1,1,1,9119,1,1,131,1,Higher,Secondary,135.9,0,0,0,1,1,0,18,7.6,2.6,0.32,Dropout_Enrolled
1,7,1,9500,1,5,140,1,Basic,Secondary,140,1,0,0,0,0,0,39,12.4,0.5,1.79,Dropout_Enrolled
1,44,1,9130,1,39,150,1,Secondary,Basic,150,1,0,0,0,0,0,22,15.5,2.8,-4.06,Dropout_Enrolled
1,17,1,9670,1,1,128,1,Basic,Basic,135.7,1,0,0,1,1,0,19,10.8,1.4,1.74,Dropout_Enrolled
1,44,1,9003,1,39,130,1,Higher,Secondary,130,0,0,0,1,1,0,19,12.4,0.5,1.79,Dropout_Enrolled
1,39,1,9670,1,1,148,1,Basic,Basic,130.9,0,0,1,0,1,0,24,10.8,1.4,1.74,Dropout_Enrolled
1,17,2,9773,1,1,123,1,Secondary,Secondary,120.9,1,0,0,1,0,0,18,13.9,-0.3,0.79,Dropout_Enrolled
1,43,2,9238,1,1,129,1,Unknown,Basic,118.9,1,0,0,1,1,0,22,9.4,-0.8,-3.12,Dropout_Enrolled
1,39,1,9670,1,1,150,1,Unknown,Unknown,108,0,0,0,1,0,0,25,7.6,2.6,0.32,Dropout_Enrolled
1,17,4,9119,1,1,129,1,Unknown,Basic,118.9,1,0,0,1,1,0,18,7.6,2.6,0.32,Dropout_Enrolled
1,17,3,9773,1,1,127,1,Basic,Basic,120,0,0,0,1,0,0,18,8.9,1.4,3.51,Dropout_Enrolled
1,43,1,9773,1,1,140,1,Higher,Basic,116.9,0,0,0,1,1,0,32,13.9,-0.3,0.79,Dropout_Enrolled
1,1,1,9238,1,1,133,1,Basic,Secondary,126,0,0,0,1,0,0,20,9.4,-0.8,-3.12,Dropout_Enrolled
1,15,1,9119,1,1,160,32,Secondary,Higher,160,0,0,1,1,0,0,19,8.9,1.4,3.51,Dropout_Enrolled
1,1,1,9853,1,1,133.1,1,Basic,Basic,132,1,0,0,1,0,0,21,12.7,3.7,-1.7,Dropout_Enrolled
1,18,5,9853,1,1,110,1,Basic,Basic,110,1,0,0,1,0,0,20,10.8,1.4,1.74,Dropout_Enrolled
1,1,1,9085,1,1,101,1,Secondary,Basic,98.9,1,0,0,1,0,0,21,11.1,0.6,2.02,Dropout_Enrolled
1,1,3,9147,1,1,136,1,Basic,Basic,127.3,1,0,0,1,1,0,19,12.7,3.7,-1.7,Dropout_Enrolled
1,39,1,9003,1,19,133.1,1,Basic,Basic,120,0,0,1,0,1,0,38,16.2,0.3,-0.92,Dropout_Enrolled
1,43,5,8014,0,1,110,1,Unknown,Unknown,110,0,0,0,1,1,0,37,7.6,2.6,0.32,Dropout_Enrolled
2,39,1,9238,1,19,133.1,1,Basic,Basic,103.5,0,0,0,1,1,0,42,15.5,2.8,-4.06,Dropout_Enrolled
1,18,1,9070,1,1,117,1,Secondary,Basic,127.9,1,0,0,1,1,0,20,9.4,-0.8,-3.12,Dropout_Enrolled
1,44,1,9085,1,39,150,1,Basic,Basic,150,0,0,0,1,0,0,20,12.4,0.5,1.79,Dropout_Enrolled
1,1,1,9070,1,1,130,1,Basic,Basic,135.6,1,0,0,1,0,1,19,8.9,1.4,3.51,Dropout_Enrolled
1,1,2,9500,1,1,140,1,Secondary,Basic,129.9,1,0,0,1,0,0,18,15.5,2.8,-4.06,Dropout_Enrolled
1,18,5,9853,1,1,121,1,Basic,Basic,117.5,1,0,1,0,0,0,20,10.8,1.4,1.74,Dropout_Enrolled
1,1,1,9003,1,1,144,1,Basic,Basic,132.8,0,0,0,1,1,1,19,15.5,2.8,-4.06,Dropout_Enrolled
2,43,1,8014,0,14,133.1,1,Unknown,Unknown,100,0,0,0,0,0,0,34,9.4,-0.8,-3.12,Dropout_Enrolled
2,39,1,9070,1,12,110,1,Basic,Basic,130,0,0,1,0,1,1,46,15.5,2.8,-4.06,Dropout_Enrolled
1,1,1,9254,1,1,133.1,1,Basic,Basic,97,0,0,0,1,1,0,27,10.8,1.4,1.74,Dropout_Enrolled
1,43,1,9147,1,1,122,1,Secondary,Basic,118.9,0,0,0,1,1,0,21,12.7,3.7,-1.7,Dropout_Enrolled
1,39,1,9500,1,1,133.1,1,Basic,Basic,128,1,0,0,0,1,0,32,16.2,0.3,-0.92,Dropout_Enrolled
1,44,1,9254,1,39,170,1,Basic,Higher,170,0,0,0,0,1,0,26,11.1,0.6,2.02,Dropout_Enrolled
1,15,1,9147,1,1,133.1,21,Secondary,Higher,100,0,0,1,1,1,0,40,11.1,0.6,2.02,Dropout_Enrolled
1,17,4,171,1,1,172,1,Higher,Secondary,155.6,1,0,0,1,1,0,19,9.4,-0.8,-3.12,Dropout_Enrolled
1,1,2,9147,1,1,133,1,Basic,Secondary,121.8,0,0,0,1,1,0,20,15.5,2.8,-4.06,Dropout_Enrolled
1,17,2,9670,1,1,132,1,Secondary,Basic,124,1,0,0,1,1,0,21,7.6,2.6,0.32,Dropout_Enrolled
1,39,1,171,1,1,133.1,1,Basic,Basic,100,0,0,1,1,1,1,33,15.5,2.8,-4.06,Dropout_Enrolled
2,39,1,9991,0,1,133.1,1,Basic,Basic,133.2,0,0,0,0,1,0,43,13.9,-0.3,0.79,Dropout_Enrolled
1,17,2,9773,1,1,139,1,Higher,Secondary,124,1,0,0,1,0,1,20,15.5,2.8,-4.06,Dropout_Enrolled
1,43,1,9991,0,3,130,1,Higher,Secondary,130,0,0,0,1,1,0,33,12.7,3.7,-1.7,Dropout_Enrolled
1,17,1,9147,1,1,138,1,Basic,Secondary,123.7,1,0,1,1,0,1,19,11.1,0.6,2.02,Dropout_Enrolled
1,43,1,9773,1,1,127,1,Basic,Secondary,117.6,1,0,0,1,0,0,18,16.2,0.3,-0.92,Dropout_Enrolled
1,43,1,9130,1,6,133.1,1,Secondary,Basic,123.3,1,0,0,1,0,1,21,7.6,2.6,0.32,Dropout_Enrolled
1,17,2,9500,1,1,140,1,Secondary,Secondary,128.5,1,0,0,1,0,0,18,12.4,0.5,1.79,Dropout_Enrolled
5,39,1,9991,0,1,120,1,Basic,Basic,138.1,0,0,0,1,1,1,37,16.2,0.3,-0.92,Dropout_Enrolled
2,39,1,9500,1,1,110,1,Basic,Basic,114.3,0,0,0,1,0,0,41,10.8,1.4,1.74,Dropout_Enrolled
1,17,1,9070,1,1,119,1,Basic,Basic,115.2,0,0,0,1,1,1,21,15.5,2.8,-4.06,Dropout_Enrolled
1,39,1,9003,1,1,130,1,Basic,Basic,120,0,0,0,1,0,0,25,11.1,0.6,2.02,Dropout_Enrolled
1,17,1,9853,1,1,119,1,Higher,Higher,110.6,0,0,0,1,0,0,20,11.1,0.6,2.02,Dropout_Enrolled
1,1,2,9670,1,1,124,1,Basic,Secondary,117.7,1,0,1,1,1,0,20,9.4,-0.8,-3.12,Dropout_Enrolled
1,1,1,9773,1,1,143,1,Higher,Higher,144.8,0,0,0,1,0,0,19,16.2,0.3,-0.92,Dropout_Enrolled
1,7,1,9500,1,2,140,1,Basic,Basic,140,0,0,0,1,0,0,29,12.7,3.7,-1.7,Dropout_Enrolled
1,17,5,9119,1,1,123,1,Higher,Secondary,116,1,0,1,0,1,0,20,8.9,1.4,3.51,Dropout_Enrolled
1,39,1,9119,1,19,133.1,1,Secondary,Secondary,134.4,0,0,1,0,1,0,31,16.2,0.3,-0.92,Dropout_Enrolled
1,1,2,9500,1,1,106,1,Secondary,Basic,106.4,1,0,0,1,0,1,19,12.4,0.5,1.79,Dropout_Enrolled
1,1,1,171,1,1,116,1,Basic,Secondary,111.1,0,0,0,1,1,0,21,13.9,-0.3,0.79,Dropout_Enrolled
5,39,1,9853,1,19,133.1,1,Basic,Basic,118,0,0,0,1,0,0,27,12.4,0.5,1.79,Dropout_Enrolled
1,1,1,9254,1,1,118,1,Basic,Basic,114.2,0,0,0,1,0,0,18,16.2,0.3,-0.92,Dropout_Enrolled
1,18,1,9147,1,1,100,1,Basic,Basic,101.8,1,0,0,1,0,0,24,10.8,1.4,1.74,Dropout_Enrolled
1,39,1,171,1,1,110,1,Secondary,Higher,100,1,0,0,1,1,0,27,9.4,-0.8,-3.12,Dropout_Enrolled
2,39,1,9991,0,1,121,1,Basic,Basic,141.4,0,0,1,0,1,0,29,10.8,1.4,1.74,Dropout_Enrolled
1,17,2,9254,1,1,130,1,Basic,Basic,121.6,1,0,0,1,0,1,18,12.7,3.7,-1.7,Dropout_Enrolled
1,17,1,9500,1,1,160,1,Basic,Basic,147.8,0,0,0,1,0,0,20,15.5,2.8,-4.06,Dropout_Enrolled
1,44,1,9085,1,39,140,1,Basic,Basic,140,1,0,0,1,1,0,19,12.4,0.5,1.79,Dropout_Enrolled
1,18,5,9085,1,1,121,1,Higher,Higher,111.9,1,0,0,1,0,0,21,12.7,3.7,-1.7,Dropout_Enrolled
1,18,5,9119,1,1,136,1,Higher,Higher,125.2,1,0,0,1,1,0,19,12.4,0.5,1.79,Dropout_Enrolled
1,1,2,9773,1,1,120,105,Secondary,Secondary,119,1,0,1,0,0,0,18,11.1,0.6,2.02,Dropout_Enrolled
2,39,1,8014,0,1,133.1,1,Basic,Basic,134.5,0,0,0,1,0,0,45,15.5,2.8,-4.06,Dropout_Enrolled
1,43,1,9130,1,1,156,1,Basic,Secondary,156,0,0,1,0,1,0,24,15.5,2.8,-4.06,Dropout_Enrolled
1,39,1,9991,0,1,100,1,Basic,Basic,153.5,0,0,1,0,1,0,31,12.4,0.5,1.79,Dropout_Enrolled
1,17,3,9070,1,1,132,1,Basic,Secondary,124.3,0,1,0,1,0,0,18,15.5,2.8,-4.06,Dropout_Enrolled
1,17,5,9254,1,1,114,1,Basic,Secondary,109.5,0,0,0,1,1,0,19,10.8,1.4,1.74,Dropout_Enrolled
1,17,2,9119,1,1,120,1,Secondary,Basic,117.2,0,0,0,1,1,1,18,11.1,0.6,2.02,Dropout_Enrolled
1,1,1,9238,1,1,123,1,Unknown,Basic,120.2,1,0,0,1,0,0,20,7.6,2.6,0.32,Dropout_Enrolled
1,17,2,9500,1,1,126,1,Basic,Basic,126.2,1,0,0,1,0,1,18,11.1,0.6,2.02,Dropout_Enrolled
1,39,1,9991,0,1,120,1,Unknown,Unknown,120.5,1,0,0,1,1,0,30,7.6,2.6,0.32,Dropout_Enrolled
1,43,1,9119,1,1,130,1,Basic,Basic,120,0,0,1,0,0,0,30,7.6,2.6,0.32,Dropout_Enrolled
1,1,1,9147,1,1,128,1,Basic,Basic,122.1,0,0,0,1,0,1,18,13.9,-0.3,0.79,Dropout_Enrolled
1,1,2,9254,1,1,137,1,Basic,Basic,125.1,1,0,0,1,0,0,18,7.6,2.6,0.32,Dropout_Enrolled
1,1,4,9500,1,1,127,1,Basic,Basic,121.5,1,0,0,1,1,0,20,7.6,2.6,0.32,Dropout_Enrolled
1,1,4,9500,1,1,140,1,Higher,Basic,133.8,1,0,0,1,0,0,17,10.8,1.4,1.74,Dropout_Enrolled
1,44,1,9085,1,39,130,1,Higher,Higher,130,0,0,0,0,1,0,20,12.4,0.5,1.79,Dropout_Enrolled
1,17,3,9853,1,1,133.1,1,Unknown,Unknown,115,0,0,0,1,0,0,18,7.6,2.6,0.32,Dropout_Enrolled
2,39,1,33,1,1,120,1,Basic,Secondary,153.8,0,0,1,1,1,0,35,11.1,0.6,2.02,Dropout_Enrolled
2,42,1,9070,1,1,170,1,Basic,Secondary,148.5,0,0,0,1,1,0,47,9.4,-0.8,-3.12,Dropout_Enrolled
1,1,1,9085,1,6,122,1,Basic,Basic,126.2,1,0,0,1,0,0,22,9.4,-0.8,-3.12,Dropout_Enrolled
1,1,5,9773,1,1,130,1,Unknown,Basic,128.3,1,0,0,0,0,1,18,7.6,2.6,0.32,Dropout_Enrolled
1,43,1,9003,1,1,120,1,Higher,Higher,115,0,0,0,1,1,0,22,16.2,0.3,-0.92,Dropout_Enrolled
1,17,2,171,1,1,130,41,Secondary,Secondary,148.6,1,0,0,1,1,0,20,11.1,0.6,2.02,Dropout_Enrolled
1,1,5,9130,1,1,160,1,Higher,Secondary,150.2,1,0,0,1,0,0,19,12.7,3.7,-1.7,Dropout_Enrolled
1,1,1,9254,1,1,154,1,Higher,Secondary,137.2,0,0,0,1,1,0,20,15.5,2.8,-4.06,Dropout_Enrolled
2,39,1,9130,1,1,130,1,Basic,Basic,160,0,0,0,1,1,0,31,16.2,0.3,-0.92,Dropout_Enrolled
1,43,1,9070,1,1,160,1,Secondary,Higher,100,0,0,0,1,1,0,38,13.9,-0.3,0.79,Dropout_Enrolled
1,51,1,9003,1,39,130,1,Secondary,Basic,120,1,0,1,0,1,0,22,8.9,1.4,3.51,Dropout_Enrolled
1,39,1,9254,1,1,133.1,1,Basic,Basic,123,0,0,1,0,0,1,28,13.9,-0.3,0.79,Dropout_Enrolled
1,1,3,9147,1,1,125,1,Secondary,Basic,120.1,0,0,1,1,1,0,19,16.2,0.3,-0.92,Dropout_Enrolled
1,1,5,9500,1,1,111,1,Higher,Higher,108.2,1,0,0,1,0,0,20,12.4,0.5,1.79,Dropout_Enrolled
4,39,1,9773,1,12,120,1,Basic,Basic,130,0,0,0,0,1,0,55,10.8,1.4,1.74,Dropout_Enrolled
1,17,1,9773,1,1,117,1,Basic,Basic,111.1,0,0,1,1,1,0,19,16.2,0.3,-0.92,Dropout_Enrolled
1,17,3,9773,1,1,135,1,Secondary,Basic,135,0,0,0,1,0,0,18,12.4,0.5,1.79,Dropout_Enrolled
1,43,1,9070,1,1,115,1,Secondary,Secondary,115,0,0,1,1,1,0,21,15.5,2.8,-4.06,Dropout_Enrolled
1,39,1,9003,1,19,133.1,1,Basic,Basic,140,0,0,0,1,1,0,43,16.2,0.3,-0.92,Dropout_Enrolled
1,1,4,9238,1,1,133.1,1,Secondary,Basic,118,1,0,0,1,0,0,19,12.7,3.7,-1.7,Dropout_Enrolled
1,1,3,9773,1,1,130,1,Basic,Basic,157,1,0,0,0,0,0,18,13.9,-0.3,0.79,Dropout_Enrolled
1,1,2,171,1,1,127,1,Higher,Basic,139.6,1,0,1,0,1,1,18,13.9,-0.3,0.79,Dropout_Enrolled
1,1,5,9500,1,1,130,1,Secondary,Higher,118.1,1,0,0,1,1,0,18,13.9,-0.3,0.79,Dropout_Enrolled
1,7,3,9130,1,3,130,1,Basic,Basic,130,0,0,0,0,1,0,41,10.8,1.4,1.74,Dropout_Enrolled
1,39,1,8014,0,1,100,1,Basic,Basic,107.5,0,0,0,1,0,0,41,12.7,3.7,-1.7,Dropout_Enrolled
2,39,1,8014,0,19,133.1,1,Basic,Basic,149.5,0,0,0,1,1,0,48,12.4,0.5,1.79,Dropout_Enrolled
1,17,4,9254,1,1,130,1,Basic,Secondary,130,1,0,0,1,1,0,18,16.2,0.3,-0.92,Dropout_Enrolled
2,7,1,171,1,3,120,1,Basic,Basic,130,1,0,0,1,1,0,37,7.6,2.6,0.32,Dropout_Enrolled
1,17,1,9254,1,1,119,1,Secondary,Secondary,125,0,0,0,1,1,0,19,10.8,1.4,1.74,Dropout_Enrolled
1,42,1,8014,0,1,120,1,Basic,Basic,120,1,0,0,1,0,0,30,7.6,2.6,0.32,Dropout_Enrolled
1,39,1,9003,1,1,133.1,6,Secondary,Secondary,129.8,0,0,0,1,1,0,24,8.9,1.4,3.51,Dropout_Enrolled
1,1,2,9500,1,1,135,1,Higher,Higher,123,1,0,0,0,0,0,19,12.7,3.7,-1.7,Dropout_Enrolled
1,44,1,9119,1,39,140,1,Higher,Higher,140,0,0,0,1,1,0,23,12.4,0.5,1.79,Dropout_Enrolled
1,18,1,9773,1,1,167,1,Basic,Basic,153,1,0,0,1,1,1,18,8.9,1.4,3.51,Dropout_Enrolled
1,39,1,8014,0,38,133.1,1,Secondary,Secondary,107.5,0,0,1,0,1,0,29,8.9,1.4,3.51,Dropout_Enrolled
2,39,1,9556,1,19,133.1,1,Basic,Basic,99.5,1,0,1,0,0,1,37,8.9,1.4,3.51,Dropout_Enrolled
1,39,1,9556,1,1,130,1,Basic,Basic,113.3,0,0,0,1,0,0,24,12.4,0.5,1.79,Dropout_Enrolled
1,39,1,9991,0,1,133.1,1,Basic,Basic,128.2,0,0,0,1,0,0,33,12.7,3.7,-1.7,Dropout_Enrolled
1,1,2,9853,1,1,121,1,Basic,Basic,120,1,0,0,1,0,0,18,10.8,1.4,1.74,Dropout_Enrolled
1,17,2,9119,1,1,120,1,Secondary,Secondary,120.4,1,0,0,1,1,0,20,10.8,1.4,1.74,Dropout_Enrolled
1,17,2,9853,1,1,133.1,1,Basic,Secondary,107,1,0,0,1,0,0,20,16.2,0.3,-0.92,Dropout_Enrolled
1,17,1,9119,1,1,122,1,Basic,Basic,114.7,0,0,0,1,1,0,20,11.1,0.6,2.02,Dropout_Enrolled
1,17,1,9254,1,1,134,1,Basic,Secondary,124.9,1,0,0,1,0,0,19,7.6,2.6,0.32,Dropout_Enrolled
1,43,1,8014,0,1,131,1,Basic,Basic,125,0,0,0,1,1,0,24,16.2,0.3,-0.92,Dropout_Enrolled
1,44,1,9003,1,39,130,1,Basic,Basic,130,0,0,1,0,1,0,20,16.2,0.3,-0.92,Dropout_Enrolled
1,1,1,9670,1,1,130,1,Secondary,Secondary,119.5,0,0,0,0,1,0,19,9.4,-0.8,-3.12,Dropout_Enrolled
4,39,1,9991,0,1,150,1,Basic,Basic,146.2,0,0,0,1,0,0,30,12.4,0.5,1.79,Dropout_Enrolled
2,7,1,9130,1,2,110,1,Basic,Basic,110,1,0,0,1,1,0,37,16.2,0.3,-0.92,Dropout_Enrolled
5,39,1,9003,1,1,133.1,1,Basic,Basic,110,0,0,1,0,0,0,28,13.9,-0.3,0.79,Dropout_Enrolled
2,39,1,9238,1,42,170,1,Basic,Basic,159.5,0,0,0,1,1,0,33,8.9,1.4,3.51,Dropout_Enrolled
1,1,2,9147,1,1,125,1,Secondary,Basic,124,1,0,0,1,0,0,19,10.8,1.4,1.74,Dropout_Enrolled
1,39,1,9003,1,1,140,1,Secondary,Higher,130,0,0,0,1,1,0,25,16.2,0.3,-0.92,Dropout_Enrolled
1,39,1,9085,1,19,133.1,1,Basic,Basic,140,0,0,0,1,0,0,35,11.1,0.6,2.02,Dropout_Enrolled
1,17,2,9070,1,1,152,1,Secondary,Secondary,134.2,1,0,0,1,1,0,20,15.5,2.8,-4.06,Dropout_Enrolled
1,1,1,9254,1,1,133.1,1,Higher,Secondary,125,0,0,0,1,1,0,21,12.7,3.7,-1.7,Dropout_Enrolled
1,1,1,9670,1,1,120,1,Secondary,Secondary,129.1,1,0,0,1,1,0,18,10.8,1.4,1.74,Dropout_Enrolled
1,42,1,9119,1,1,136,1,Secondary,Basic,117.5,0,0,0,1,1,0,19,15.5,2.8,-4.06,Dropout_Enrolled
1,1,1,9238,1,1,138,1,Secondary,Basic,123,1,0,1,0,0,0,18,8.9,1.4,3.51,Dropout_Enrolled
1,39,1,9003,1,1,130,1,Basic,Basic,113,1,0,0,0,1,0,35,15.5,2.8,-4.06,Dropout_Enrolled
1,1,1,9500,1,1,133.1,1,Secondary,Basic,115,0,0,0,0,1,0,20,16.2,0.3,-0.92,Dropout_Enrolled
2,17,3,8014,0,1,123,1,Basic,Basic,113.2,0,0,1,0,0,0,18,7.6,2.6,0.32,Dropout_Enrolled
1,1,1,9070,1,1,124,1,Basic,Basic,138.4,1,0,1,1,0,1,19,13.9,-0.3,0.79,Dropout_Enrolled
1,16,2,9147,1,1,129,1,Basic,Basic,127.6,1,0,0,1,1,0,19,10.8,1.4,1.74,Dropout_Enrolled
1,39,1,9085,1,1,133.1,1,Basic,Basic,148.2,1,0,1,1,0,0,27,12.4,0.5,1.79,Dropout_Enrolled
1,17,2,9853,1,1,127,1,Basic,Basic,121.1,1,0,0,1,1,0,19,12.4,0.5,1.79,Dropout_Enrolled
2,1,1,9238,1,1,145,1,Basic,Unknown,139.4,0,0,0,0,0,0,27,9.4,-0.8,-3.12,Dropout_Enrolled
1,1,1,9254,1,1,123,1,Basic,Basic,125.1,0,0,0,1,0,0,19,16.2,0.3,-0.92,Dropout_Enrolled
1,1,1,9853,1,1,120,1,Basic,Basic,115.1,0,0,0,1,0,1,18,15.5,2.8,-4.06,Dropout_Enrolled
1,7,1,9500,1,3,140,1,Higher,Basic,140,0,0,0,1,1,0,27,12.4,0.5,1.79,Dropout_Enrolled
1,17,2,9070,1,1,127,1,Basic,Basic,119.3,1,1,0,1,1,1,25,12.7,3.7,-1.7,Dropout_Enrolled
1,1,1,9773,1,1,140,1,Higher,Higher,133.4,1,0,0,0,1,0,29,11.1,0.6,2.02,Dropout_Enrolled
1,39,1,9130,1,19,133.1,1,Basic,Basic,156.4,1,0,1,1,1,0,44,13.9,-0.3,0.79,Dropout_Enrolled
1,1,1,9238,1,1,138,1,Basic,Basic,135.9,1,0,0,1,0,0,19,7.6,2.6,0.32,Dropout_Enrolled
1,43,1,9773,1,1,114,1,Basic,Basic,107.4,1,0,0,0,1,0,26,9.4,-0.8,-3.12,Dropout_Enrolled
1,1,1,9853,1,1,125,1,Unknown,Basic,129.2,1,0,1,0,0,0,20,10.8,1.4,1.74,Dropout_Enrolled
1,44,1,9085,1,1,140,1,Secondary,Higher,140,0,0,0,1,0,0,20,13.9,-0.3,0.79,Dropout_Enrolled
1,39,1,9991,0,1,133,1,Basic,Basic,139.2,1,0,1,1,1,0,33,12.7,3.7,-1.7,Dropout_Enrolled
1,39,1,9991,0,1,133.1,1,Basic,Basic,125.7,0,0,0,1,0,0,26,10.8,1.4,1.74,Dropout_Enrolled
1,39,1,9670,1,12,133.1,1,Secondary,Basic,100,1,0,1,0,0,0,25,9.4,-0.8,-3.12,Dropout_Enrolled
2,42,1,9853,1,1,133.1,1,Basic,Basic,100,0,0,0,1,0,0,34,12.7,3.7,-1.7,Dropout_Enrolled
1,44,1,9085,1,39,140,1,Secondary,Higher,140,0,0,1,0,0,0,24,12.4,0.5,1.79,Dropout_Enrolled
1,18,1,9147,1,1,147,1,Basic,Secondary,139.3,1,0,0,1,1,0,20,12.4,0.5,1.79,Dropout_Enrolled
1,1,1,9070,1,1,124,1,Basic,Basic,126.8,0,0,0,1,0,1,18,13.9,-0.3,0.79,Dropout_Enrolled
1,44,1,9003,1,1,120,1,Higher,Higher,120,1,0,0,1,1,0,21,12.7,3.7,-1.7,Dropout_Enrolled
2,43,1,9147,1,2,120,1,Basic,Basic,122.8,0,0,1,0,0,0,42,15.5,2.8,-4.06,Dropout_Enrolled
1,43,2,9670,1,1,135,1,Higher,Basic,123.5,1,0,0,1,1,0,22,16.2,0.3,-0.92,Dropout_Enrolled
1,43,1,9991,0,39,160,1,Basic,Basic,160,0,0,0,1,0,0,24,9.4,-0.8,-3.12,Dropout_Enrolled
4,39,1,9085,1,1,110,1,Basic,Basic,110,0,0,0,0,0,0,35,9.4,-0.8,-3.12,Dropout_Enrolled
1,17,5,9670,1,1,115,1,Secondary,Basic,117.1,0,0,0,1,0,0,21,7.6,2.6,0.32,Dropout_Enrolled
1,2,1,9853,1,1,120,1,Basic,Basic,122.5,0,0,0,0,0,0,28,15.5,2.8,-4.06,Dropout_Enrolled
1,43,2,9853,1,1,118,1,Basic,Secondary,110,1,0,0,1,0,0,20,10.8,1.4,1.74,Dropout_Enrolled
1,1,2,9670,1,1,143,1,Basic,Basic,131.8,1,0,0,1,0,1,18,12.4,0.5,1.79,Dropout_Enrolled
1,1,1,9853,1,1,142,1,Basic,Secondary,132.6,0,0,0,1,0,0,18,9.4,-0.8,-3.12,Dropout_Enrolled
2,39,2,9147,1,1,150,1,Basic,Basic,101,0,0,1,0,0,0,29,10.8,1.4,1.74,Dropout_Enrolled
1,43,1,9991,0,1,130,1,Basic,Higher,126.5,1,0,0,0,1,0,23,7.6,2.6,0.32,Dropout_Enrolled
1,39,1,9003,1,1,130,1,Basic,Secondary,126.1,1,0,0,0,1,0,27,15.5,2.8,-4.06,Dropout_Enrolled
1,1,5,9500,1,1,125,1,Secondary,Secondary,115.6,1,0,0,1,0,0,18,16.2,0.3,-0.92,Dropout_Enrolled
1,44,1,9085,1,39,130,1,Basic,Basic,130,1,0,0,1,0,0,23,11.1,0.6,2.02,Dropout_Enrolled
1,1,1,9147,1,1,117,1,Basic,Basic,118.4,0,0,0,1,1,0,20,7.6,2.6,0.32,Dropout_Enrolled
2,7,1,9147,1,3,110,1,Basic,Secondary,110,0,0,0,1,0,0,33,11.1,0.6,2.02,Dropout_Enrolled
1,1,1,9670,1,1,122,1,Secondary,Secondary,126.6,1,0,0,1,0,0,18,11.1,0.6,2.02,Dropout_Enrolled
1,17,1,171,1,1,129,1,Basic,Basic,128,0,0,0,0,1,0,20,9.4,-0.8,-3.12,Dropout_Enrolled
2,39,1,9003,1,1,133.1,1,Secondary,Basic,120,0,0,1,0,1,0,25,15.5,2.8,-4.06,Dropout_Enrolled
1,1,4,9147,1,1,108,1,Higher,Secondary,109.1,1,0,0,1,1,0,19,12.4,0.5,1.79,Dropout_Enrolled
2,39,1,9003,1,1,111,1,Secondary,Higher,162.4,0,0,1,0,1,0,49,8.9,1.4,3.51,Dropout_Enrolled
1,44,1,9003,1,39,130,1,Higher,Higher,130,0,0,0,1,1,0,20,12.4,0.5,1.79,Dropout_Enrolled
1,39,1,9085,1,1,133.1,1,Higher,Higher,144.9,1,0,0,1,0,0,26,12.4,0.5,1.79,Dropout_Enrolled
1,39,2,9556,1,1,133.1,1,Secondary,Secondary,100.5,0,0,0,1,1,0,24,11.1,0.6,2.02,Dropout_Enrolled
1,1,1,171,1,1,148,1,Higher,Higher,131.6,1,0,0,1,0,0,21,8.9,1.4,3.51,Dropout_Enrolled
1,39,1,9500,1,1,133.1,1,Basic,Basic,121.4,0,0,1,1,0,0,28,13.9,-0.3,0.79,Dropout_Enrolled
2,39,1,9991,0,19,133.1,1,Basic,Basic,150,0,0,0,0,1,0,49,15.5,2.8,-4.06,Dropout_Enrolled
1,1,1,9119,1,1,142,1,Secondary,Basic,129.8,1,0,0,1,1,0,18,10.8,1.4,1.74,Dropout_Enrolled
1,1,1,9670,1,1,133.1,1,Unknown,Basic,147,0,0,0,1,0,0,22,9.4,-0.8,-3.12,Dropout_Enrolled
1,1,1,9500,1,1,117,1,Basic,Basic,117.4,1,0,0,1,0,0,19,11.1,0.6,2.02,Dropout_Enrolled
2,39,1,9238,1,19,133.1,1,Secondary,Higher,130,0,0,0,1,0,0,31,9.4,-0.8,-3.12,Dropout_Enrolled
2,39,2,9670,1,19,133.1,1,Basic,Basic,135.6,0,0,0,1,0,0,46,12.4,0.5,1.79,Dropout_Enrolled
1,43,1,9238,1,1,110,1,Basic,Basic,110,0,0,0,1,0,0,36,15.5,2.8,-4.06,Dropout_Enrolled
2,39,2,9556,1,12,133.1,1,Unknown,Unknown,100.5,0,0,0,1,0,0,39,11.1,0.6,2.02,Dropout_Enrolled
1,39,1,9119,1,1,133.1,1,Basic,Basic,101.6,0,0,0,1,1,1,30,12.7,3.7,-1.7,Dropout_Enrolled
1,17,6,9238,1,1,131,1,Secondary,Higher,131.7,1,0,0,1,0,0,18,9.4,-0.8,-3.12,Dropout_Enrolled
1,43,1,9991,0,1,100,1,Basic,Basic,130,0,0,0,1,1,0,40,15.5,2.8,-4.06,Dropout_Enrolled
1,39,1,9991,0,1,140,1,Basic,Basic,130,0,0,1,1,0,0,25,12.7,3.7,-1.7,Dropout_Enrolled
5,1,3,9085,1,1,133,1,Basic,Basic,119.7,1,0,0,1,0,0,21,9.4,-0.8,-3.12,Dropout_Enrolled
1,43,1,9670,1,1,151,1,Basic,Basic,100,0,0,1,1,0,0,20,13.9,-0.3,0.79,Dropout_Enrolled
1,53,1,9003,1,1,130,1,Basic,Secondary,130,0,0,1,1,1,0,21,8.9,1.4,3.51,Dropout_Enrolled
1,39,1,9085,1,1,133.1,1,Basic,Basic,128.2,0,0,0,1,1,0,28,7.6,2.6,0.32,Dropout_Enrolled
1,7,1,9085,1,3,140,1,Basic,Secondary,140,1,0,0,1,0,0,32,10.8,1.4,1.74,Dropout_Enrolled
1,1,2,171,1,1,120,1,Higher,Basic,119.7,1,0,0,1,0,0,21,8.9,1.4,3.51,Dropout_Enrolled
2,1,1,9003,1,1,120,1,Basic,Basic,120.5,1,0,1,1,1,0,35,15.5,2.8,-4.06,Dropout_Enrolled
1,1,1,9500,1,1,141,1,Basic,Secondary,128,0,0,0,1,1,0,18,10.8,1.4,1.74,Dropout_Enrolled
1,17,1,9670,1,1,133,1,Basic,Basic,121.8,1,0,0,1,1,0,22,13.9,-0.3,0.79,Dropout_Enrolled
2,7,1,8014,0,3,170,1,Basic,Basic,170,0,0,0,1,0,0,27,9.4,-0.8,-3.12,Dropout_Enrolled
1,1,1,9773,1,1,120,1,Basic,Basic,118.3,0,0,1,0,1,1,18,13.9,-0.3,0.79,Dropout_Enrolled
1,1,1,171,1,1,162,1,Basic,Basic,142.8,1,0,0,1,1,0,21,12.7,3.7,-1.7,Dropout_Enrolled
1,1,1,9085,1,1,135,1,Basic,Basic,136.8,1,0,0,1,0,0,18,9.4,-0.8,-3.12,Dropout_Enrolled
1,1,5,9773,1,1,131,1,Secondary,Basic,132.4,1,0,1,0,1,0,18,11.1,0.6,2.02,Dropout_Enrolled
1,17,1,9773,1,1,112,1,Secondary,Secondary,111.7,0,0,1,0,1,0,19,15.5,2.8,-4.06,Dropout_Enrolled
1,17,1,9147,1,1,147,1,Basic,Basic,142.8,1,0,1,0,0,1,19,11.1,0.6,2.02,Dropout_Enrolled
1,39,1,9119,1,1,130,1,Basic,Higher,137,1,0,0,1,1,0,28,7.6,2.6,0.32,Dropout_Enrolled
1,17,4,9254,1,1,122,1,Secondary,Secondary,116.1,1,0,0,1,1,0,19,7.6,2.6,0.32,Dropout_Enrolled
1,1,1,9670,1,1,116,1,Basic,Basic,116.7,1,0,0,1,1,0,21,9.4,-0.8,-3.12,Dropout_Enrolled
1,43,1,9254,1,1,130,1,Secondary,Basic,130,0,0,0,1,0,1,19,10.8,1.4,1.74,Dropout_Enrolled
1,5,1,9670,1,1,135,1,Secondary,Secondary,140.3,1,0,0,1,0,0,19,12.4,0.5,1.79,Dropout_Enrolled
1,43,1,9070,1,1,116,1,Secondary,Secondary,120.9,0,0,0,1,1,0,24,12.7,3.7,-1.7,Dropout_Enrolled
1,17,3,9500,1,1,132,1,Basic,Higher,130.8,1,0,0,1,0,0,18,10.8,1.4,1.74,Dropout_Enrolled
1,39,2,9556,1,1,130,1,Basic,Basic,100,0,0,0,1,1,1,25,15.5,2.8,-4.06,Dropout_Enrolled
4,39,1,8014,0,19,100,1,Secondary,Basic,111.5,0,0,0,1,1,0,45,10.8,1.4,1.74,Dropout_Enrolled
1,1,1,9070,1,1,116,1,Higher,Higher,108.7,1,0,0,1,1,0,23,7.6,2.6,0.32,Dropout_Enrolled
1,51,1,9147,1,1,160,1,Secondary,Basic,118,0,0,0,1,0,0,53,8.9,1.4,3.51,Dropout_Enrolled
1,39,1,8014,0,1,134,1,Basic,Basic,110,1,0,0,1,0,0,24,9.4,-0.8,-3.12,Dropout_Enrolled
1,39,1,9500,1,1,110,1,Secondary,Basic,126,1,0,0,1,1,0,27,7.6,2.6,0.32,Dropout_Enrolled
1,17,3,9254,1,1,114,26,Basic,Higher,127.3,1,0,1,0,0,0,20,10.8,1.4,1.74,Dropout_Enrolled
1,17,2,9147,1,1,133.1,1,Secondary,Secondary,95,0,0,0,1,1,0,20,11.1,0.6,2.02,Dropout_Enrolled
2,43,1,9670,1,1,120,1,Unknown,Unknown,128.2,0,0,0,1,1,0,35,9.4,-0.8,-3.12,Dropout_Enrolled
1,18,1,9991,0,1,133.1,1,Basic,Basic,145,0,0,0,1,0,1,21,10.8,1.4,1.74,Dropout_Enrolled
1,39,1,9991,0,1,130,1,Secondary,Secondary,115.2,0,0,0,1,1,0,24,12.4,0.5,1.79,Dropout_Enrolled
1,7,1,9147,1,2,150,1,Higher,Basic,150,1,0,1,0,0,0,38,15.5,2.8,-4.06,Dropout_Enrolled
1,43,1,9070,1,1,108,1,Basic,Basic,105.2,1,0,0,1,1,0,25,12.7,3.7,-1.7,Dropout_Enrolled
1,1,2,9238,1,1,117,1,Basic,Secondary,110,1,0,1,0,0,0,18,11.1,0.6,2.02,Dropout_Enrolled
1,39,2,9238,1,1,110,1,Basic,Secondary,136.5,0,0,0,1,1,0,28,13.9,-0.3,0.79,Dropout_Enrolled
1,44,1,171,1,39,110,1,Basic,Basic,108.3,0,0,0,0,0,0,26,12.4,0.5,1.79,Dropout_Enrolled
1,17,1,9254,1,1,126,1,Basic,Basic,126,0,0,0,0,1,0,29,9.4,-0.8,-3.12,Dropout_Enrolled
1,7,1,9085,1,40,140,1,Higher,Higher,140,0,0,1,1,1,0,27,11.1,0.6,2.02,Dropout_Enrolled
2,1,4,8014,0,1,140,1,Unknown,Unknown,128,1,0,0,1,1,0,37,9.4,-0.8,-3.12,Dropout_Enrolled
1,39,2,9147,1,1,130,1,Basic,Basic,121.5,0,0,0,0,1,0,26,10.8,1.4,1.74,Dropout_Enrolled
1,39,1,8014,0,19,100,1,Basic,Basic,111,1,0,0,1,0,1,26,7.6,2.6,0.32,Dropout_Enrolled
1,18,4,9119,1,1,134,1,Basic,Basic,124.9,1,0,1,1,1,0,18,8.9,1.4,3.51,Dropout_Enrolled
4,39,1,9556,1,1,160,1,Basic,Higher,130,0,0,0,1,0,0,25,12.7,3.7,-1.7,Dropout_Enrolled
1,39,1,9556,1,19,133.1,1,Basic,Basic,100,0,0,0,1,1,0,31,15.5,2.8,-4.06,Dropout_Enrolled
1,17,4,9773,1,1,147,1,Secondary,Secondary,139.7,1,0,0,1,1,0,18,9.4,-0.8,-3.12,Dropout_Enrolled
1,51,1,9556,1,1,131,1,Secondary,Basic,126.6,1,0,0,1,1,0,23,8.9,1.4,3.51,Dropout_Enrolled
1,43,1,9991,0,1,136,1,Higher,Higher,133.9,0,0,0,0,1,0,26,7.6,2.6,0.32,Dropout_Enrolled
1,16,5,9085,1,1,134,1,Basic,Basic,123.9,1,0,0,1,1,0,18,9.4,-0.8,-3.12,Dropout_Enrolled
2,39,1,9254,1,19,133.1,1,Unknown,Unknown,120,0,0,1,0,1,0,45,9.4,-0.8,-3.12,Dropout_Enrolled
1,1,1,9500,1,1,127,1,Higher,Secondary,121.4,0,0,0,1,1,0,20,12.4,0.5,1.79,Dropout_Enrolled
1,43,1,8014,0,1,117,1,Basic,Basic,100,0,0,0,1,0,0,27,13.9,-0.3,0.79,Dropout_Enrolled
1,15,1,171,1,1,130,26,Secondary,Secondary,130,0,0,0,1,1,0,21,8.9,1.4,3.51,Dropout_Enrolled
1,1,1,9119,1,1,160,1,Basic,Basic,153.7,0,0,0,1,1,0,19,9.4,-0.8,-3.12,Dropout_Enrolled
1,1,5,171,1,1,160,1,Secondary,Secondary,139.7,0,0,0,1,1,0,18,12.7,3.7,-1.7,Dropout_Enrolled
1,39,1,9991,0,1,120,1,Basic,Basic,120,1,0,0,0,1,0,25,9.4,-0.8,-3.12,Dropout_Enrolled
1,39,1,9991,0,1,130,1,Secondary,Secondary,152.1,0,0,0,1,1,0,28,11.1,0.6,2.02,Dropout_Enrolled
1,16,1,171,1,1,158,1,Basic,Basic,164.3,1,0,0,1,1,1,18,10.8,1.4,1.74,Dropout_Enrolled
1,51,1,9147,1,1,148,1,Secondary,Basic,118.4,1,0,0,1,1,0,30,8.9,1.4,3.51,Dropout_Enrolled
1,17,1,9254,1,1,121,1,Secondary,Secondary,123.1,1,0,0,1,1,0,21,7.6,2.6,0.32,Dropout_Enrolled
1,7,3,9130,1,3,130,1,Basic,Basic,130,0,0,1,0,0,0,27,12.7,3.7,-1.7,Dropout_Enrolled
1,18,3,9070,1,1,142,1,Secondary,Basic,130.8,1,0,0,0,1,0,19,12.7,3.7,-1.7,Dropout_Enrolled
1,43,1,9119,1,1,130,1,Secondary,Secondary,128,0,0,1,0,1,0,27,13.9,-0.3,0.79,Dropout_Enrolled
1,1,1,9130,1,1,130,1,Higher,Higher,117.6,0,0,0,1,1,0,19,9.4,-0.8,-3.12,Dropout_Enrolled
1,42,1,9003,1,1,160,1,Basic,Secondary,107.8,1,0,0,0,1,0,27,15.5,2.8,-4.06,Dropout_Enrolled
1,18,4,9556,1,1,127,1,Secondary,Basic,121.8,1,0,0,1,0,0,20,12.7,3.7,-1.7,Dropout_Enrolled
1,1,5,9147,1,1,133,1,Basic,Higher,123.2,1,0,0,1,1,0,18,13.9,-0.3,0.79,Dropout_Enrolled
1,43,2,9991,0,1,140,1,Basic,Basic,124.3,1,0,0,0,1,0,27,12.7,3.7,-1.7,Dropout_Enrolled
1,17,1,9254,1,1,123,1,Basic,Basic,120.6,1,0,0,0,0,0,19,10.8,1.4,1.74,Dropout_Enrolled
2,39,1,9500,1,1,133.1,1,Basic,Basic,118.9,0,0,0,1,0,0,30,13.9,-0.3,0.79,Dropout_Enrolled
1,17,1,9773,1,1,133.1,1,Basic,Basic,117,0,0,0,1,0,0,21,15.5,2.8,-4.06,Dropout_Enrolled
1,39,1,9670,1,1,133.1,1,Basic,Basic,125.3,0,1,0,1,1,1,30,12.4,0.5,1.79,Dropout_Enrolled
1,17,2,9773,1,1,133.1,1,Higher,Higher,125.8,1,0,0,0,1,1,22,7.6,2.6,0.32,Dropout_Enrolled
2,43,1,9991,0,1,150,1,Basic,Basic,120.1,0,0,0,0,0,0,39,10.8,1.4,1.74,Dropout_Enrolled
1,17,2,9254,1,1,143,1,Secondary,Basic,135,0,0,0,1,0,0,20,11.1,0.6,2.02,Dropout_Enrolled
1,1,1,9070,1,1,123,1,Basic,Basic,124.8,0,0,0,0,0,1,18,8.9,1.4,3.51,Dropout_Enrolled
1,39,1,9500,1,1,120,1,Secondary,Higher,105.9,0,0,0,1,0,0,35,11.1,0.6,2.02,Dropout_Enrolled
1,1,1,171,1,1,135,1,Basic,Higher,143.8,1,0,1,1,0,0,19,12.7,3.7,-1.7,Dropout_Enrolled
1,39,1,9991,0,2,140,1,Higher,Higher,155.7,1,0,0,1,1,0,35,10.8,1.4,1.74,Dropout_Enrolled
1,1,3,9254,1,1,121,1,Basic,Basic,125.9,1,0,0,1,0,0,22,9.4,-0.8,-3.12,Dropout_Enrolled
1,17,5,9147,1,1,133,1,Secondary,Secondary,129.2,1,0,0,1,0,0,19,7.6,2.6,0.32,Dropout_Enrolled
1,1,1,9147,1,1,138,1,Basic,Basic,131,1,0,0,1,0,0,19,12.4,0.5,1.79,Dropout_Enrolled
2,39,1,9003,1,1,133.1,1,Basic,Basic,100,0,0,0,0,1,0,44,15.5,2.8,-4.06,Dropout_Enrolled
2,39,2,9670,1,1,133.1,41,Basic,Basic,130,0,0,0,1,0,0,30,9.4,-0.8,-3.12,Dropout_Enrolled
1,1,1,9147,1,1,133.1,1,Unknown,Unknown,125.3,0,0,0,1,1,0,26,7.6,2.6,0.32,Dropout_Enrolled
1,39,1,9119,1,1,130,1,Basic,Basic,149,1,0,0,1,1,0,33,7.6,2.6,0.32,Dropout_Enrolled
2,39,1,9670,1,1,130,1,Basic,Basic,158,0,0,1,0,0,0,34,12.7,3.7,-1.7,Dropout_Enrolled
1,1,5,9500,1,1,130,1,Basic,Basic,127.6,1,0,0,1,0,0,18,15.5,2.8,-4.06,Dropout_Enrolled
1,17,6,9500,1,1,136,1,Higher,Basic,125.7,1,0,0,1,0,0,20,11.1,0.6,2.02,Dropout_Enrolled
1,7,1,9670,1,3,110,1,Secondary,Basic,110,1,0,0,1,1,0,27,9.4,-0.8,-3.12,Dropout_Enrolled
1,1,1,9130,1,1,138,1,Higher,Higher,123,1,0,0,1,0,0,21,12.7,3.7,-1.7,Dropout_Enrolled
1,1,1,9238,1,1,108,1,Basic,Basic,107.3,0,1,0,1,0,1,19,12.4,0.5,1.79,Dropout_Enrolled
1,17,1,9119,1,1,142,1,Basic,Basic,127.3,0,0,0,1,1,0,18,16.2,0.3,-0.92,Dropout_Enrolled
1,1,1,9085,1,1,120,1,Higher,Secondary,113.4,0,0,0,1,0,0,18,11.1,0.6,2.02,Dropout_Enrolled
1,1,2,9853,1,1,117,1,Secondary,Basic,109.7,1,0,0,1,0,0,19,9.4,-0.8,-3.12,Dropout_Enrolled
2,39,1,9085,1,1,150,1,Basic,Basic,112,0,0,0,1,1,0,34,10.8,1.4,1.74,Dropout_Enrolled
1,1,3,9085,1,1,135,1,Higher,Higher,121,1,0,0,1,0,0,18,9.4,-0.8,-3.12,Dropout_Enrolled
1,44,1,9003,1,39,140,1,Secondary,Basic,140,0,0,0,1,1,0,21,15.5,2.8,-4.06,Dropout_Enrolled
1,1,1,9254,1,1,123,1,Basic,Basic,117.8,0,0,0,1,1,0,19,10.8,1.4,1.74,Dropout_Enrolled
2,39,1,9991,0,1,110,1,Basic,Basic,120,1,0,0,0,1,0,40,9.4,-0.8,-3.12,Dropout_Enrolled
6,39,1,9500,1,1,133.1,1,Basic,Basic,110,0,0,0,1,0,0,36,16.2,0.3,-0.92,Dropout_Enrolled
1,18,3,9853,1,1,128,1,Basic,Basic,116.8,1,0,0,0,1,0,19,10.8,1.4,1.74,Dropout_Enrolled
1,39,1,9085,1,1,150,1,Basic,Basic,100,0,0,0,1,0,0,24,13.9,-0.3,0.79,Dropout_Enrolled
1,39,1,9991,0,1,133.1,1,Basic,Basic,126.3,0,0,0,1,0,1,26,16.2,0.3,-0.92,Dropout_Enrolled
6,39,1,9991,0,12,130,1,Basic,Basic,119,1,0,0,0,1,0,55,7.6,2.6,0.32,Dropout_Enrolled
2,39,1,9085,1,19,133.1,1,Basic,Basic,101,1,0,0,1,0,0,26,15.5,2.8,-4.06,Dropout_Enrolled
1,39,1,9254,1,19,133.1,1,Basic,Basic,101.5,0,0,1,0,1,0,34,15.5,2.8,-4.06,Dropout_Enrolled
2,39,1,9130,1,19,133.1,1,Higher,Secondary,120,1,0,1,0,1,0,28,16.2,0.3,-0.92,Dropout_Enrolled
1,39,1,9500,1,19,133.1,1,Basic,Basic,143.7,0,0,0,1,0,0,27,12.4,0.5,1.79,Dropout_Enrolled
1,17,1,9853,1,1,133.1,1,Unknown,Basic,117.1,1,0,0,1,0,1,21,7.6,2.6,0.32,Dropout_Enrolled
1,18,1,9085,1,1,106,1,Secondary,Basic,104.6,0,0,0,0,1,0,21,11.1,0.6,2.02,Dropout_Enrolled
1,1,5,9773,1,1,110,1,Basic,Basic,117.4,1,0,0,1,0,0,20,11.1,0.6,2.02,Graduate
1,7,1,8014,0,43,180,1,Basic,Basic,180,0,0,0,1,0,0,37,8.9,1.4,3.51,Graduate
1,17,1,9500,1,1,130,1,Secondary,Higher,128.6,1,0,0,1,0,0,18,16.2,0.3,-0.92,Graduate
1,43,1,9085,1,39,150,1,Basic,Basic,150,1,0,0,1,0,1,21,10.8,1.4,1.74,Graduate
1,17,2,9238,1,1,128,1,Basic,Basic,116.5,0,0,0,1,0,1,18,16.2,0.3,-0.92,Graduate
1,1,4,9254,1,1,105,1,Secondary,Basic,106.1,1,0,0,1,0,0,20,13.9,-0.3,0.79,Graduate
1,17,3,9238,1,1,125,1,Basic,Basic,121.5,0,0,0,1,0,0,19,13.9,-0.3,0.79,Graduate
1,1,3,9500,1,1,141,1,Secondary,Secondary,126.3,1,0,0,1,0,0,18,12.7,3.7,-1.7,Graduate
1,17,6,9556,1,1,134,1,Basic,Basic,128.5,1,0,0,1,0,1,18,12.7,3.7,-1.7,Graduate
1,1,1,9254,1,1,172,41,Basic,Basic,153.8,1,0,0,1,0,1,20,10.8,1.4,1.74,Graduate
1,1,1,9254,1,1,135,1,Basic,Basic,139.2,0,0,0,1,1,1,19,12.4,0.5,1.79,Graduate
1,17,1,9070,1,1,135,1,Basic,Basic,125.2,1,0,0,1,0,0,19,12.7,3.7,-1.7,Graduate
1,17,1,9670,1,1,128,1,Basic,Basic,124.4,0,0,0,1,0,1,19,13.9,-0.3,0.79,Graduate
1,1,1,171,1,1,172,1,Secondary,Secondary,167.1,0,0,0,1,1,1,18,16.2,0.3,-0.92,Graduate
1,1,1,9500,1,1,144,1,Basic,Secondary,137.4,0,0,0,1,0,0,19,16.2,0.3,-0.92,Graduate
1,1,4,9773,1,1,125,1,Basic,Basic,129.6,1,0,0,1,1,0,18,12.4,0.5,1.79,Graduate
2,43,1,9070,1,2,140,1,Basic,Basic,140,1,0,0,1,1,0,38,16.2,0.3,-0.92,Graduate
1,1,5,9500,1,1,151,1,Secondary,Secondary,127.8,0,0,0,1,0,1,18,12.7,3.7,-1.7,Graduate
1,1,2,9500,1,1,133,1,Basic,Secondary,122.2,0,0,0,1,0,0,20,13.9,-0.3,0.79,Graduate
1,1,2,9500,1,1,152,1,Basic,Basic,139,1,0,0,1,0,0,18,7.6,2.6,0.32,Graduate
1,17,1,9773,1,1,121,1,Basic,Basic,122.4,0,0,0,1,0,0,18,13.9,-0.3,0.79,Graduate
1,17,1,9238,1,1,122,1,Higher,Secondary,114.7,0,0,0,1,0,0,19,13.9,-0.3,0.79,Graduate
1,15,1,9147,1,1,150,1,Basic,Secondary,150,0,0,0,1,1,0,19,12.4,0.5,1.79,Graduate
1,1,2,9500,1,1,140,1,Secondary,Secondary,128.3,1,0,0,1,0,0,19,10.8,1.4,1.74,Graduate
1,1,1,9500,1,1,135,1,Basic,Higher,121.5,1,0,0,1,0,0,18,7.6,2.6,0.32,Graduate
5,39,1,9991,0,1,110,1,Secondary,Secondary,119,0,0,0,1,1,1,35,8.9,1.4,3.51,Graduate
1,1,2,9085,1,1,162,1,Basic,Secondary,165.2,1,0,0,1,0,1,18,10.8,1.4,1.74,Graduate
1,1,1,9130,1,1,161,1,Secondary,Basic,152.3,0,0,0,1,0,0,18,11.1,0.6,2.02,Graduate
1,39,1,9773,1,1,130,1,Secondary,Basic,161.5,0,0,0,1,1,0,36,10.8,1.4,1.74,Graduate
1,17,1,9238,1,1,115,1,Basic,Basic,115,1,0,0,1,0,0,19,11.1,0.6,2.02,Graduate
1,53,1,9085,1,42,150,1,Secondary,Basic,145.2,1,0,0,1,0,0,20,8.9,1.4,3.51,Graduate
1,17,2,9853,1,1,131,1,Secondary,Basic,121.9,1,0,0,1,0,0,19,10.8,1.4,1.74,Graduate
1,7,1,9003,1,4,120,1,Higher,Secondary,120,1,0,0,1,0,0,31,15.5,2.8,-4.06,Graduate
1,17,1,9670,1,1,130,1,Higher,Basic,121.6,0,0,0,1,0,0,18,8.9,1.4,3.51,Graduate
1,1,1,9070,1,1,126,1,Secondary,Basic,120.1,0,1,0,1,0,1,20,11.1,0.6,2.02,Graduate
1,1,1,9254,1,1,138,1,Basic,Basic,133.1,0,0,0,1,0,0,18,15.5,2.8,-4.06,Graduate
1,17,4,9254,1,1,113,1,Basic,Basic,107.4,1,0,0,1,0,1,19,12.4,0.5,1.79,Graduate
1,1,1,9070,1,1,136,1,Higher,Higher,136,1,0,1,0,0,1,19,10.8,1.4,1.74,Graduate
1,43,1,9238,1,1,120,1,Secondary,Basic,118.3,0,0,0,1,0,1,20,13.9,-0.3,0.79,Graduate
2,43,1,9991,0,1,133.1,1,Basic,Basic,113.5,0,0,0,1,0,1,32,10.8,1.4,1.74,Graduate
1,39,1,8014,0,1,120,1,Secondary,Basic,122,0,0,0,1,0,1,24,11.1,0.6,2.02,Graduate
1,17,4,9147,1,1,133,1,Secondary,Secondary,136.2,1,0,0,1,0,0,19,7.6,2.6,0.32,Graduate
1,17,1,9254,1,1,116,1,Basic,Basic,109.7,1,0,0,1,0,0,22,11.1,0.6,2.02,Graduate
1,44,1,9991,0,39,160,1,Basic,Basic,160,0,0,0,1,0,0,26,12.7,3.7,-1.7,Graduate
1,16,2,9085,1,1,136,1,Basic,Basic,123.4,1,0,0,1,0,1,19,9.4,-0.8,-3.12,Graduate
1,17,2,9670,1,1,123,1,Higher,Secondary,116.7,0,0,0,1,0,0,19,9.4,-0.8,-3.12,Graduate
1,42,3,9500,1,1,136,1,Secondary,Secondary,148.8,1,0,0,1,0,1,19,9.4,-0.8,-3.12,Graduate
1,43,1,9070,1,1,114,1,Basic,Basic,135.9,0,0,0,1,1,0,26,15.5,2.8,-4.06,Graduate
1,1,1,9670,1,1,124,1,Basic,Basic,119.1,0,0,0,1,1,1,20,9.4,-0.8,-3.12,Graduate
1,17,4,9085,1,1,128,1,Basic,Basic,117.9,1,0,0,1,0,0,20,10.8,1.4,1.74,Graduate
1,1,1,9147,1,1,131,1,Basic,Basic,126.5,0,0,0,1,0,1,18,12.4,0.5,1.79,Graduate
1,17,1,9085,1,1,113,1,Basic,Basic,118.6,1,0,0,1,0,1,21,8.9,1.4,3.51,Graduate
1,1,1,9147,1,1,127,1,Secondary,Basic,130.5,1,0,0,1,0,1,21,9.4,-0.8,-3.12,Graduate
1,17,5,9070,1,1,131,1,Basic,Basic,126.1,1,0,0,0,0,0,18,7.6,2.6,0.32,Graduate
1,1,1,9773,1,1,156,1,Higher,Higher,155,0,0,0,1,0,0,18,8.9,1.4,3.51,Graduate
1,1,1,9500,1,1,114,1,Basic,Basic,112.6,1,0,0,1,0,0,19,16.2,0.3,-0.92,Graduate
1,1,3,9500,1,1,140,1,Basic,Basic,125.5,1,0,0,1,0,1,19,10.8,1.4,1.74,Graduate
1,17,6,9500,1,1,139,1,Basic,Basic,133.5,1,0,0,1,0,1,18,12.7,3.7,-1.7,Graduate
1,17,1,9254,1,1,160,1,Basic,Basic,152,0,0,0,1,0,0,18,12.7,3.7,-1.7,Graduate
1,43,1,8014,0,1,145,6,Unknown,Unknown,134.5,1,0,0,1,1,0,25,9.4,-0.8,-3.12,Graduate
1,1,3,9147,1,1,133,1,Basic,Basic,125,1,0,0,1,0,0,18,9.4,-0.8,-3.12,Graduate
1,17,1,9254,1,1,140,1,Higher,Secondary,129.9,0,0,0,1,0,1,19,9.4,-0.8,-3.12,Graduate
1,18,2,9500,1,1,135,1,Basic,Basic,125.3,1,0,0,1,0,1,18,12.7,3.7,-1.7,Graduate
1,43,1,9500,1,6,134,1,Secondary,Basic,120.4,1,0,0,1,0,0,19,7.6,2.6,0.32,Graduate
1,1,2,9085,1,1,140,1,Basic,Basic,137,0,0,0,1,0,0,18,9.4,-0.8,-3.12,Graduate
1,1,2,9556,1,1,130,1,Secondary,Basic,119.5,1,0,0,1,0,1,21,15.5,2.8,-4.06,Graduate
1,1,2,9070,1,1,152,101,Higher,Secondary,168.5,1,0,0,1,1,0,21,16.2,0.3,-0.92,Graduate
1,39,1,9085,1,1,128,1,Basic,Secondary,157.4,1,0,0,1,0,0,26,8.9,1.4,3.51,Graduate
1,17,1,9085,1,1,125,1,Secondary,Basic,117,1,0,0,1,0,1,19,10.8,1.4,1.74,Graduate
1,1,1,9773,1,1,128,1,Secondary,Basic,124.5,0,0,0,1,1,1,19,9.4,-0.8,-3.12,Graduate
1,39,1,9070,1,1,110,1,Basic,Basic,110.2,0,0,0,1,1,0,55,11.1,0.6,2.02,Graduate
1,1,1,9853,1,1,148,1,Basic,Basic,141.7,0,0,0,1,0,1,18,9.4,-0.8,-3.12,Graduate
4,39,1,8014,0,3,100,1,Basic,Basic,130,0,0,0,1,0,1,43,9.4,-0.8,-3.12,Graduate
1,39,1,9500,1,1,100,1,Secondary,Basic,122,0,0,0,1,0,0,24,10.8,1.4,1.74,Graduate
1,43,1,9773,1,1,137,1,Basic,Basic,127.9,1,0,0,1,0,0,20,15.5,2.8,-4.06,Graduate
2,39,1,8014,0,1,130,1,Basic,Basic,110,1,0,0,1,0,0,33,9.4,-0.8,-3.12,Graduate
1,1,1,9238,1,1,134,1,Secondary,Secondary,130.9,0,0,1,1,0,0,18,13.9,-0.3,0.79,Graduate
4,39,1,9500,1,1,140,1,Basic,Basic,101.5,1,0,0,1,0,0,24,10.8,1.4,1.74,Graduate
1,1,3,9070,1,1,161,1,Basic,Basic,154.4,1,0,0,1,0,0,18,16.2,0.3,-0.92,Graduate
1,1,1,9147,1,1,117,1,Basic,Basic,118.1,0,0,0,1,1,0,19,12.4,0.5,1.79,Graduate
2,44,1,8014,0,39,150,1,Secondary,Secondary,154,0,0,0,1,1,0,37,12.4,0.5,1.79,Graduate
1,1,1,9853,1,1,122,1,Basic,Basic,112.9,1,0,0,1,0,1,19,8.9,1.4,3.51,Graduate
1,44,1,171,1,39,150,1,Basic,Secondary,154.8,1,0,0,1,1,0,21,12.4,0.5,1.79,Graduate
1,44,1,9085,1,39,140,1,Higher,Higher,140,1,0,0,1,0,0,19,12.4,0.5,1.79,Graduate
1,18,2,9853,1,1,111,1,Basic,Basic,105.8,1,0,0,1,0,0,19,8.9,1.4,3.51,Graduate
1,1,1,9147,1,1,180,1,Basic,Basic,153.8,1,0,0,1,0,1,20,9.4,-0.8,-3.12,Graduate
1,17,4,9500,1,1,140,1,Secondary,Secondary,127.6,1,0,0,1,0,0,23,12.4,0.5,1.79,Graduate
4,39,2,8014,0,1,160,1,Basic,Basic,115,0,0,0,1,0,1,41,10.8,1.4,1.74,Graduate
1,17,4,9500,1,1,137,1,Secondary,Basic,128.4,1,0,0,1,0,1,19,13.9,-0.3,0.79,Graduate
1,17,1,9238,1,1,120,1,Basic,Secondary,113.4,1,0,0,1,0,1,20,12.7,3.7,-1.7,Graduate
1,1,1,9670,1,1,116,1,Higher,Higher,110.1,1,0,0,1,1,0,19,12.4,0.5,1.79,Graduate
1,1,5,171,1,1,139,1,Basic,Higher,136.9,1,0,0,1,1,1,19,9.4,-0.8,-3.12,Graduate
1,1,1,9500,1,1,128,1,Secondary,Basic,125.6,1,0,0,1,1,0,18,12.4,0.5,1.79,Graduate
1,1,3,9070,1,1,127,1,Basic,Basic,141,1,0,0,1,1,1,19,12.4,0.5,1.79,Graduate
1,1,1,171,1,1,143,1,Higher,Basic,129.7,1,0,0,1,0,0,18,13.9,-0.3,0.79,Graduate
1,1,1,9773,1,1,136,1,Basic,Basic,126.2,0,0,0,1,0,0,19,16.2,0.3,-0.92,Graduate
1,1,1,171,1,1,136,1,Basic,Basic,129,1,0,0,1,1,1,19,13.9,-0.3,0.79,Graduate
1,43,1,9130,1,1,140,1,Higher,Secondary,140,1,0,0,1,0,0,22,12.7,3.7,-1.7,Graduate
1,1,3,9500,1,1,145,1,Basic,Basic,136.3,1,0,0,1,0,1,18,12.7,3.7,-1.7,Graduate
1,1,1,9773,1,1,133.1,1,Higher,Basic,127,0,0,0,1,1,0,20,15.5,2.8,-4.06,Graduate
1,1,1,9254,1,1,129,1,Basic,Basic,118.5,1,0,0,1,0,0,18,7.6,2.6,0.32,Graduate
1,16,1,9556,1,1,137,1,Basic,Basic,122.7,1,0,0,1,0,1,18,12.4,0.5,1.79,Graduate
1,17,1,171,1,1,142,1,Basic,Basic,132.9,0,0,0,1,1,0,22,12.7,3.7,-1.7,Graduate
1,17,6,9238,1,1,138,1,Higher,Higher,123,1,0,0,1,0,0,19,15.5,2.8,-4.06,Graduate
1,1,2,9500,1,1,140,1,Secondary,Secondary,131,1,0,0,1,0,1,18,9.4,-0.8,-3.12,Graduate
1,1,2,9147,1,1,132,1,Secondary,Basic,126.4,1,0,0,1,0,1,18,13.9,-0.3,0.79,Graduate
1,1,1,9500,1,1,144,1,Basic,Basic,150.5,0,0,0,1,0,0,20,7.6,2.6,0.32,Graduate
1,1,1,9773,1,1,154,1,Basic,Basic,150.2,0,0,0,1,0,1,18,16.2,0.3,-0.92,Graduate
1,17,1,9238,1,1,133,1,Basic,Basic,125.3,1,0,0,1,0,1,18,15.5,2.8,-4.06,Graduate
1,17,3,9500,1,1,133,1,Basic,Basic,128.8,1,0,0,1,1,0,18,13.9,-0.3,0.79,Graduate
1,17,1,9254,1,1,102,1,Basic,Basic,102,0,0,0,1,0,0,19,10.8,1.4,1.74,Graduate
1,1,1,9238,1,1,121,1,Secondary,Secondary,118.9,1,0,0,1,0,1,19,12.4,0.5,1.79,Graduate
1,39,1,9254,1,1,150,1,Higher,Secondary,122.3,0,0,0,1,1,0,28,13.9,-0.3,0.79,Graduate
1,17,2,9773,1,1,131,1,Higher,Basic,132.8,1,0,0,1,1,0,19,13.9,-0.3,0.79,Graduate
1,17,1,9147,1,1,122,1,Secondary,Basic,117.8,1,0,0,1,0,0,20,13.9,-0.3,0.79,Graduate
1,1,3,9500,1,1,142,1,Basic,Basic,137.3,1,0,0,1,0,1,22,7.6,2.6,0.32,Graduate
1,43,1,9130,1,1,140,1,Secondary,Higher,140,1,0,0,1,0,1,20,13.9,-0.3,0.79,Graduate
1,44,1,9147,1,39,130,1,Basic,Secondary,130,0,0,0,1,0,1,20,11.1,0.6,2.02,Graduate
1,1,6,9500,1,1,135,1,Basic,Secondary,126.8,1,0,0,1,0,1,18,10.8,1.4,1.74,Graduate
1,1,4,9773,1,1,140,22,Secondary,Basic,130.5,1,0,0,1,0,0,20,12.7,3.7,-1.7,Graduate
1,17,5,9500,1,1,143,1,Basic,Secondary,130.6,1,0,0,1,0,1,18,13.9,-0.3,0.79,Graduate
1,1,2,9500,1,1,138,1,Higher,Higher,127.5,1,0,0,1,0,1,18,16.2,0.3,-0.92,Graduate
1,44,1,9070,1,39,140,1,Secondary,Basic,140,0,0,0,1,1,0,25,16.2,0.3,-0.92,Graduate
1,43,4,9500,1,6,134,1,Basic,Basic,129.8,1,0,0,1,0,0,20,7.6,2.6,0.32,Graduate
1,51,1,9238,1,39,140,1,Basic,Basic,129.1,1,0,0,1,0,1,20,12.4,0.5,1.79,Graduate
1,1,1,9147,1,1,133,1,Basic,Basic,147,0,0,0,1,0,1,18,9.4,-0.8,-3.12,Graduate
1,1,1,9500,1,1,130,1,Basic,Basic,117.8,1,0,0,1,0,1,19,12.7,3.7,-1.7,Graduate
1,1,1,171,1,1,142,1,Secondary,Secondary,133.3,1,0,0,1,0,0,19,10.8,1.4,1.74,Graduate
1,17,1,9254,1,1,115,1,Secondary,Secondary,108.7,1,0,0,1,0,1,18,12.4,0.5,1.79,Graduate
1,1,1,9147,1,1,150,103,Basic,Basic,134.6,0,0,0,1,1,0,20,9.4,-0.8,-3.12,Graduate
1,1,1,9085,1,1,140,1,Higher,Higher,146.4,0,0,0,1,0,0,18,7.6,2.6,0.32,Graduate
1,17,6,9670,1,1,113,1,Higher,Secondary,112.3,0,0,0,1,0,0,20,11.1,0.6,2.02,Graduate
1,17,1,9500,1,1,128,1,Basic,Secondary,117.2,1,0,0,1,0,0,20,16.2,0.3,-0.92,Graduate
1,17,1,9085,1,1,133,1,Basic,Secondary,127.1,1,0,0,1,0,0,18,11.1,0.6,2.02,Graduate
1,1,1,9500,1,1,133,1,Basic,Basic,121.8,0,0,0,1,1,1,18,9.4,-0.8,-3.12,Graduate
1,17,5,9670,1,1,125,1,Secondary,Basic,119.4,1,0,0,1,0,0,18,11.1,0.6,2.02,Graduate
5,39,1,9500,1,3,140,1,Basic,Basic,160,0,0,0,1,0,0,27,12.7,3.7,-1.7,Graduate
4,39,1,8014,0,19,133.1,1,Basic,Basic,134.5,0,0,0,1,0,1,47,12.4,0.5,1.79,Graduate
1,1,1,9773,1,1,121,1,Basic,Secondary,117.9,1,0,0,1,0,0,19,11.1,0.6,2.02,Graduate
1,1,6,9500,1,1,140,1,Higher,Secondary,131.5,1,0,0,1,0,0,19,9.4,-0.8,-3.12,Graduate
1,17,1,9254,1,1,128,1,Basic,Secondary,120.7,1,0,1,1,0,0,18,13.9,-0.3,0.79,Graduate
1,44,1,9085,1,39,150,1,Basic,Basic,150,1,0,0,1,0,0,23,16.2,0.3,-0.92,Graduate
1,1,1,9500,1,1,136,1,Basic,Basic,119.3,1,0,0,1,0,1,18,12.7,3.7,-1.7,Graduate
1,17,1,9670,1,1,133.1,1,Secondary,Basic,150,0,0,0,1,1,0,21,11.1,0.6,2.02,Graduate
1,1,2,9254,1,1,136,1,Basic,Basic,125.2,1,0,0,1,0,1,18,8.9,1.4,3.51,Graduate
1,1,1,9500,1,1,149,1,Basic,Secondary,134.8,0,0,0,1,0,0,18,9.4,-0.8,-3.12,Graduate
1,1,1,171,1,1,141,1,Secondary,Basic,141.4,1,0,0,1,0,1,18,13.9,-0.3,0.79,Graduate
1,1,1,171,1,1,149,1,Basic,Basic,158.1,1,0,0,1,1,1,20,10.8,1.4,1.74,Graduate
1,1,1,9070,1,1,136,1,Secondary,Basic,132.2,0,0,1,1,0,0,19,10.8,1.4,1.74,Graduate
1,1,1,9670,1,1,136,1,Basic,Secondary,123.4,1,0,0,1,0,1,18,11.1,0.6,2.02,Graduate
1,1,1,8014,0,1,123,1,Unknown,Basic,121.3,1,0,0,1,0,0,25,7.6,2.6,0.32,Graduate
1,17,4,9500,1,1,141,1,Basic,Basic,126.3,1,0,0,1,0,0,18,10.8,1.4,1.74,Graduate
1,43,1,9500,1,1,136,1,Higher,Higher,100,0,0,0,1,0,0,18,13.9,-0.3,0.79,Graduate
1,1,2,9085,1,1,130,1,Secondary,Basic,122.3,1,0,0,1,0,0,18,9.4,-0.8,-3.12,Graduate
1,1,1,9147,1,1,140,1,Basic,Basic,124.3,1,0,0,1,0,1,18,12.4,0.5,1.79,Graduate
1,1,3,9070,1,1,139,1,Secondary,Basic,142.2,1,0,0,1,0,1,19,9.4,-0.8,-3.12,Graduate
1,1,1,9147,1,1,153,1,Secondary,Basic,146.7,0,0,0,1,0,0,18,11.1,0.6,2.02,Graduate
1,7,1,9147,1,3,130,1,Basic,Basic,130,0,0,0,1,0,0,21,10.8,1.4,1.74,Graduate
1,1,1,9500,1,1,138,1,Basic,Basic,126.8,0,0,0,1,1,1,19,15.5,2.8,-4.06,Graduate
1,39,1,9670,1,1,133.1,1,Secondary,Basic,140,0,0,0,1,1,1,25,15.5,2.8,-4.06,Graduate
1,17,1,9003,1,1,133,1,Basic,Basic,125.3,1,0,0,1,0,0,21,15.5,2.8,-4.06,Graduate
1,44,1,9003,1,39,160,1,Basic,Basic,160,1,0,0,1,0,0,20,12.4,0.5,1.79,Graduate
1,17,2,9238,1,1,130,1,Basic,Basic,127.6,1,0,0,1,0,0,18,11.1,0.6,2.02,Graduate
1,44,1,9070,1,1,140,1,Secondary,Secondary,144.3,1,0,0,1,0,0,19,12.4,0.5,1.79,Graduate
1,44,1,9070,1,39,120,1,Higher,Basic,120,0,0,0,1,1,0,21,16.2,0.3,-0.92,Graduate
1,1,2,9147,1,1,133,1,Higher,Basic,120.4,1,0,0,1,0,0,22,8.9,1.4,3.51,Graduate
1,17,2,8014,0,1,134,1,Secondary,Basic,126,1,0,0,1,1,0,22,7.6,2.6,0.32,Graduate
1,1,1,9500,1,1,148,1,Higher,Higher,137.3,1,0,0,1,0,0,19,7.6,2.6,0.32,Graduate
1,39,1,9070,1,1,130,1,Secondary,Basic,110,1,0,0,1,0,0,24,15.5,2.8,-4.06,Graduate
1,1,1,9500,1,1,150,1,Basic,Basic,136.5,1,0,0,1,0,1,18,9.4,-0.8,-3.12,Graduate
1,53,1,9085,1,42,150,1,Secondary,Basic,150.3,1,0,0,1,1,1,21,8.9,1.4,3.51,Graduate
1,17,2,9773,1,1,132,1,Basic,Secondary,141.8,1,0,0,1,1,0,20,12.7,3.7,-1.7,Graduate
4,39,1,9500,1,19,133.1,1,Basic,Secondary,120,0,0,0,1,0,1,35,9.4,-0.8,-3.12,Graduate
1,1,1,171,1,1,141,1,Secondary,Basic,136.8,1,0,0,1,0,1,18,13.9,-0.3,0.79,Graduate
1,51,1,9070,1,1,130,1,Higher,Secondary,122.2,0,0,1,1,0,0,20,11.1,0.6,2.02,Graduate
1,1,1,9500,1,1,150,1,Secondary,Secondary,155.6,0,0,0,1,0,0,19,16.2,0.3,-0.92,Graduate
1,1,3,9254,1,1,128,1,Basic,Secondary,121.7,1,0,0,1,0,1,18,12.4,0.5,1.79,Graduate
1,39,1,9500,1,1,123,1,Basic,Secondary,140.8,0,0,0,1,0,0,25,10.8,1.4,1.74,Graduate
1,1,2,9773,1,1,138,1,Basic,Secondary,133.5,1,0,0,1,0,0,18,12.7,3.7,-1.7,Graduate
1,1,1,9991,0,1,145,1,Higher,Basic,127.5,1,0,0,1,1,0,22,7.6,2.6,0.32,Graduate
1,1,2,9773,1,1,130,1,Basic,Basic,126.9,1,0,0,1,1,1,18,9.4,-0.8,-3.12,Graduate
1,1,1,9085,1,1,123,1,Basic,Basic,124.1,1,0,0,1,0,1,20,9.4,-0.8,-3.12,Graduate
1,1,2,9500,1,1,134,1,Basic,Basic,131,1,0,0,1,1,0,18,15.5,2.8,-4.06,Graduate
1,1,6,9147,1,1,127,1,Secondary,Basic,120,1,0,0,1,1,0,19,8.9,1.4,3.51,Graduate
1,1,4,9500,1,1,133,1,Basic,Basic,127.3,1,0,0,1,0,0,18,12.7,3.7,-1.7,Graduate
1,1,1,9773,1,1,170,1,Secondary,Basic,155,0,0,0,1,1,1,18,11.1,0.6,2.02,Graduate
1,1,1,171,1,1,149,1,Secondary,Secondary,156,1,0,0,1,0,0,18,10.8,1.4,1.74,Graduate
1,1,1,9500,1,1,149,1,Basic,Basic,136,0,0,0,1,0,1,18,7.6,2.6,0.32,Graduate
1,51,1,9670,1,1,140,1,Secondary,Higher,126.6,0,0,0,1,1,0,19,11.1,0.6,2.02,Graduate
1,1,3,9070,1,1,136,1,Basic,Basic,125.2,1,0,0,1,0,1,18,10.8,1.4,1.74,Graduate
1,42,1,9500,1,1,160,1,Basic,Basic,161,1,0,0,1,0,1,22,10.8,1.4,1.74,Graduate
1,1,4,9500,1,1,133.1,1,Basic,Basic,119.6,1,0,0,1,0,1,19,12.4,0.5,1.79,Graduate
1,1,4,9500,1,1,123,1,Basic,Basic,116.7,1,0,0,1,0,0,20,16.2,0.3,-0.92,Graduate
1,39,1,8014,0,15,170,1,Unknown,Secondary,101,0,0,0,1,0,0,32,7.6,2.6,0.32,Graduate
1,18,1,9670,1,1,128,1,Basic,Higher,120,1,0,0,1,0,0,19,11.1,0.6,2.02,Graduate
2,7,1,9070,1,43,140,1,Basic,Secondary,140,0,0,0,1,0,0,33,11.1,0.6,2.02,Graduate
1,1,1,9670,1,1,142,1,Secondary,Basic,128,0,0,0,1,0,1,18,11.1,0.6,2.02,Graduate
1,1,1,9070,1,1,132,1,Secondary,Secondary,133.8,1,0,0,1,0,1,20,16.2,0.3,-0.92,Graduate
1,1,6,9773,1,1,116,1,Basic,Secondary,110.1,1,0,0,1,0,1,19,12.4,0.5,1.79,Graduate
1,1,2,9773,1,1,146,1,Higher,Secondary,149.2,1,0,0,1,0,0,18,9.4,-0.8,-3.12,Graduate
1,1,1,9773,1,1,150,1,Basic,Basic,131.1,1,0,0,1,1,0,19,7.6,2.6,0.32,Graduate
1,1,2,9773,1,1,130,1,Secondary,Secondary,126.2,1,0,0,1,0,0,18,12.7,3.7,-1.7,Graduate
1,1,6,9500,1,1,138,1,Basic,Basic,127.2,1,0,0,1,0,1,18,15.5,2.8,-4.06,Graduate
1,17,6,9500,1,1,132,1,Basic,Basic,132.4,1,0,0,1,0,1,22,11.1,0.6,2.02,Graduate
1,1,1,9853,1,1,125,1,Basic,Basic,117,0,0,0,1,0,1,19,15.5,2.8,-4.06,Graduate
1,43,1,9254,1,1,112,1,Basic,Basic,108.5,0,0,0,1,1,0,21,9.4,-0.8,-3.12,Graduate
1,1,4,171,1,1,137,1,Secondary,Basic,141.2,1,0,0,1,1,0,19,11.1,0.6,2.02,Graduate
1,44,1,9003,1,39,160,1,Secondary,Basic,160,1,0,0,1,1,1,20,13.9,-0.3,0.79,Graduate
1,17,1,9238,1,1,134,1,Basic,Basic,124.2,0,0,0,1,0,1,21,15.5,2.8,-4.06,Graduate
1,44,1,9238,1,39,140,1,Basic,Basic,143,0,0,0,1,0,0,19,13.9,-0.3,0.79,Graduate
1,17,1,9085,1,1,128,1,Higher,Basic,123.3,1,0,0,1,0,1,20,8.9,1.4,3.51,Graduate
1,15,1,9254,1,1,160,1,Secondary,Higher,142.5,1,0,0,0,1,0,19,13.9,-0.3,0.79,Graduate
1,17,1,9085,1,1,131,1,Basic,Basic,125.4,1,0,0,1,0,0,20,15.5,2.8,-4.06,Graduate
1,1,3,9500,1,1,128,1,Basic,Basic,118.6,1,0,0,1,0,1,19,13.9,-0.3,0.79,Graduate
1,1,1,9238,1,1,135,1,Basic,Basic,124.5,0,0,0,1,0,1,18,16.2,0.3,-0.92,Graduate
1,39,1,9991,0,1,130,1,Basic,Basic,120.2,1,0,0,1,1,0,30,7.6,2.6,0.32,Graduate
1,1,3,9254,1,1,121,1,Basic,Basic,116.8,1,0,0,1,0,0,21,11.1,0.6,2.02,Graduate
2,43,1,9853,1,1,110,1,Basic,Basic,100,0,0,0,1,1,0,40,13.9,-0.3,0.79,Graduate
1,17,2,9773,1,1,130,1,Higher,Secondary,126.2,1,0,0,1,0,0,20,12.4,0.5,1.79,Graduate
1,1,1,9500,1,1,125,1,Secondary,Secondary,117,0,0,0,1,0,1,21,9.4,-0.8,-3.12,Graduate
1,1,1,9085,1,1,133,1,Secondary,Basic,143.2,0,0,0,1,0,0,19,7.6,2.6,0.32,Graduate
1,1,1,9500,1,1,138,1,Secondary,Basic,132.5,1,0,0,1,0,1,19,10.8,1.4,1.74,Graduate
1,1,1,9853,1,1,131,1,Basic,Basic,127.9,1,0,0,1,0,1,18,13.9,-0.3,0.79,Graduate
1,39,1,9773,1,19,100,1,Basic,Basic,128,1,0,0,1,1,0,28,7.6,2.6,0.32,Graduate
1,1,1,8014,0,1,115,1,Basic,Basic,115,1,0,0,1,0,0,28,9.4,-0.8,-3.12,Graduate
1,1,4,9500,1,1,145,1,Higher,Basic,130,1,0,0,1,0,0,18,9.4,-0.8,-3.12,Graduate
1,1,3,9085,1,1,138,1,Secondary,Secondary,128.7,1,0,0,1,0,0,18,8.9,1.4,3.51,Graduate
1,1,1,9500,1,1,130,1,Basic,Basic,117.8,1,0,0,1,1,0,19,10.8,1.4,1.74,Graduate
1,1,1,9853,1,1,130,1,Basic,Secondary,133.2,1,0,0,1,0,0,19,7.6,2.6,0.32,Graduate
1,1,4,9500,1,1,140,1,Secondary,Basic,127,1,0,0,1,0,0,19,12.7,3.7,-1.7,Graduate
1,1,2,9500,1,1,133.1,1,Basic,Basic,125.5,1,0,0,1,0,1,21,15.5,2.8,-4.06,Graduate
1,1,1,9147,1,1,148,1,Basic,Basic,133,1,0,0,1,0,0,18,13.9,-0.3,0.79,Graduate
1,1,5,9500,1,1,129,1,Basic,Basic,128.8,1,0,0,1,0,0,19,7.6,2.6,0.32,Graduate
1,1,1,9773,1,1,122,1,Basic,Basic,126.6,1,0,0,1,0,0,18,8.9,1.4,3.51,Graduate
2,39,1,9991,0,1,110,1,Basic,Basic,150,0,0,0,1,1,0,49,15.5,2.8,-4.06,Graduate
1,1,1,9773,1,1,125,1,Basic,Basic,115.9,0,0,0,1,0,0,19,10.8,1.4,1.74,Graduate
1,1,5,9070,1,1,125,1,Higher,Higher,140.8,1,0,0,1,1,0,22,9.4,-0.8,-3.12,Graduate
1,17,4,9853,1,1,122,1,Basic,Basic,118.9,1,0,0,1,0,0,20,7.6,2.6,0.32,Graduate
1,17,2,9254,1,1,108,1,Basic,Basic,108,1,0,0,1,0,1,20,12.7,3.7,-1.7,Graduate
1,1,1,9254,1,1,144,1,Basic,Basic,142.6,1,0,0,1,0,1,18,15.5,2.8,-4.06,Graduate
1,1,3,9500,1,1,154,1,Secondary,Basic,134.8,1,0,0,1,0,0,19,7.6,2.6,0.32,Graduate
1,1,4,9773,1,1,132,11,Secondary,Secondary,129.9,1,0,0,1,0,0,18,7.6,2.6,0.32,Graduate
1,39,1,9670,1,1,133.1,1,Basic,Basic,118,0,0,0,1,1,0,27,8.9,1.4,3.51,Graduate
1,17,1,9670,1,1,123,1,Basic,Basic,114.6,0,0,0,1,0,0,18,9.4,-0.8,-3.12,Graduate
1,1,1,9773,1,1,126,1,Basic,Basic,119,0,0,0,1,0,1,18,15.5,2.8,-4.06,Graduate
1,17,4,9853,1,1,121,1,Basic,Basic,113.7,1,0,0,1,0,1,20,9.4,-0.8,-3.12,Graduate
1,39,1,9500,1,19,133.1,1,Basic,Basic,133,0,0,0,1,0,0,24,13.9,-0.3,0.79,Graduate
1,17,5,9500,1,1,144,1,Basic,Basic,130.7,1,0,0,1,0,1,18,13.9,-0.3,0.79,Graduate
1,17,1,9254,1,1,148,1,Secondary,Secondary,145.2,0,0,0,1,1,0,20,16.2,0.3,-0.92,Graduate
1,16,3,9085,1,1,130,1,Basic,Basic,119.5,1,0,0,1,0,1,18,15.5,2.8,-4.06,Graduate
1,1,1,9500,1,1,127,1,Higher,Secondary,119.3,1,0,0,1,0,0,20,11.1,0.6,2.02,Graduate
1,1,1,171,1,1,137,1,Basic,Basic,134.6,1,0,0,1,0,1,19,10.8,1.4,1.74,Graduate
4,43,1,8014,0,1,140,1,Basic,Basic,126,0,0,0,1,0,1,39,12.7,3.7,-1.7,Graduate
1,1,1,9070,1,1,141,1,Basic,Basic,126.7,1,0,1,1,0,1,20,12.7,3.7,-1.7,Graduate
1,1,4,9670,1,1,128,1,Basic,Basic,121,1,0,0,1,0,0,19,11.1,0.6,2.02,Graduate
2,15,1,9773,1,1,133.1,41,Basic,Basic,100,0,0,0,1,0,0,59,11.1,0.6,2.02,Graduate
1,39,1,9991,0,1,150,1,Basic,Basic,127,0,0,0,1,1,0,34,8.9,1.4,3.51,Graduate
1,43,1,9500,1,1,157,1,Basic,Higher,141.4,0,0,0,1,0,0,21,13.9,-0.3,0.79,Graduate
1,1,6,9773,1,1,136,1,Basic,Basic,132.9,1,0,0,1,1,0,19,7.6,2.6,0.32,Graduate
1,43,1,9500,1,1,120,1,Secondary,Secondary,112,1,0,0,1,0,1,19,12.7,3.7,-1.7,Graduate
1,1,1,9853,1,1,152,1,Basic,Basic,154.1,0,0,1,1,0,1,18,12.7,3.7,-1.7,Graduate
1,1,1,9500,1,1,142,1,Basic,Basic,128.4,1,0,0,1,0,1,18,15.5,2.8,-4.06,Graduate
1,17,1,9670,1,1,121,1,Basic,Basic,114.4,0,0,0,1,0,0,19,11.1,0.6,2.02,Graduate
1,1,6,9500,1,1,130,1,Basic,Basic,125.1,1,0,0,1,0,0,18,15.5,2.8,-4.06,Graduate
1,1,1,9147,1,1,122,1,Basic,Basic,120.6,1,0,0,1,0,1,19,9.4,-0.8,-3.12,Graduate
1,17,1,9238,1,1,131,1,Basic,Basic,121.9,0,0,0,1,0,1,19,16.2,0.3,-0.92,Graduate
1,1,2,9254,1,1,121,1,Basic,Basic,124.2,1,0,0,1,0,1,18,16.2,0.3,-0.92,Graduate
1,18,1,9130,1,1,135,1,Basic,Basic,121.7,1,0,0,1,0,1,18,10.8,1.4,1.74,Graduate
2,39,2,9254,1,19,133.1,1,Basic,Basic,123.5,0,0,0,1,1,0,39,12.4,0.5,1.79,Graduate
1,18,1,9670,1,1,133,1,Secondary,Secondary,121.5,1,0,0,1,0,1,19,12.4,0.5,1.79,Graduate
1,1,1,9085,1,1,131,1,Basic,Basic,137,0,0,0,1,0,0,18,7.6,2.6,0.32,Graduate
1,43,1,9238,1,1,110,1,Secondary,Secondary,112.5,1,0,0,1,0,0,20,7.6,2.6,0.32,Graduate
1,17,2,8014,0,1,120,1,Basic,Secondary,114.8,1,0,0,1,0,0,19,10.8,1.4,1.74,Graduate
2,39,1,9991,0,1,120,1,Basic,Basic,156,1,0,0,1,1,0,33,10.8,1.4,1.74,Graduate
1,1,2,9254,1,1,131,1,Higher,Higher,126.1,1,0,0,1,0,0,18,8.9,1.4,3.51,Graduate
1,1,3,9070,1,1,129,1,Higher,Higher,124.8,1,0,0,1,0,0,21,12.4,0.5,1.79,Graduate
1,1,1,9773,1,1,138,1,Secondary,Basic,131.7,1,0,0,1,1,0,18,15.5,2.8,-4.06,Graduate
1,1,1,9670,1,1,141,1,Basic,Basic,130.5,0,0,0,1,1,0,19,11.1,0.6,2.02,Graduate
1,1,4,9670,1,1,125,1,Secondary,Basic,114.9,1,0,0,1,0,1,19,11.1,0.6,2.02,Graduate
1,1,1,9085,1,1,148,1,Basic,Higher,136.5,0,0,0,1,0,0,19,15.5,2.8,-4.06,Graduate
1,17,2,9500,1,1,141,1,Basic,Secondary,127.3,1,0,0,1,0,1,19,7.6,2.6,0.32,Graduate
4,39,1,9670,1,1,100,1,Basic,Basic,120,0,0,1,1,0,1,39,9.4,-0.8,-3.12,Graduate
1,44,1,9085,1,39,150,1,Basic,Basic,150,1,0,0,1,1,0,20,16.2,0.3,-0.92,Graduate
2,39,1,9670,1,1,150,1,Basic,Basic,135.6,0,0,0,1,0,1,43,12.4,0.5,1.79,Graduate
1,1,2,9238,1,1,136,1,Secondary,Basic,135.7,1,0,0,1,0,0,19,7.6,2.6,0.32,Graduate
1,17,1,9500,1,1,160,1,Basic,Secondary,153,1,0,0,1,0,0,18,7.6,2.6,0.32,Graduate
1,1,1,9238,1,1,124,1,Unknown,Unknown,129.3,0,0,0,1,0,0,19,7.6,2.6,0.32,Graduate
1,1,1,9500,1,1,136,1,Secondary,Basic,136.4,0,0,0,1,0,1,19,13.9,-0.3,0.79,Graduate
1,17,1,9147,1,1,124,1,Basic,Basic,126.8,1,0,0,1,0,0,20,15.5,2.8,-4.06,Graduate
1,1,1,9130,1,1,132,1,Higher,Secondary,121.9,1,0,0,1,0,0,18,13.9,-0.3,0.79,Graduate
1,53,1,9085,1,42,160,1,Secondary,Basic,155.7,1,0,0,1,0,0,27,8.9,1.4,3.51,Graduate
1,15,1,9670,1,1,133.1,41,Secondary,Secondary,100,0,0,0,1,0,0,21,11.1,0.6,2.02,Graduate
1,1,1,9773,1,1,120,1,Basic,Basic,126.7,1,0,0,1,1,0,20,7.6,2.6,0.32,Graduate
1,1,6,9500,1,1,144,1,Basic,Basic,130.5,1,0,0,1,0,0,18,12.7,3.7,-1.7,Graduate
1,1,1,9085,1,1,119,1,Higher,Secondary,113.1,1,0,0,1,0,0,21,10.8,1.4,1.74,Graduate
1,17,1,9070,1,1,135,1,Basic,Basic,145.9,0,0,0,1,0,1,18,16.2,0.3,-0.92,Graduate
1,1,1,9556,1,1,118,1,Basic,Basic,116.3,1,0,0,1,0,1,20,12.7,3.7,-1.7,Graduate
1,1,1,9238,1,1,143,1,Basic,Unknown,133.6,1,0,0,1,0,0,18,9.4,-0.8,-3.12,Graduate
1,43,1,9500,1,1,137,1,Basic,Basic,129.3,1,0,0,1,0,0,19,12.7,3.7,-1.7,Graduate
1,1,1,9238,1,1,130,1,Secondary,Secondary,124.8,0,0,0,1,0,1,18,11.1,0.6,2.02,Graduate
1,15,1,9238,1,1,140,26,Basic,Basic,140,0,0,0,1,1,0,21,11.1,0.6,2.02,Graduate
2,7,1,9238,1,3,130,1,Basic,Basic,130,0,0,0,1,0,0,38,16.2,0.3,-0.92,Graduate
1,1,1,9238,1,1,165,1,Basic,Basic,152.4,1,0,0,1,0,1,18,16.2,0.3,-0.92,Graduate
1,1,1,171,1,1,139,1,Basic,Basic,124,1,0,0,1,0,0,18,7.6,2.6,0.32,Graduate
1,7,1,9991,0,3,140,1,Basic,Basic,140,0,0,0,1,1,0,27,7.6,2.6,0.32,Graduate
1,43,1,9500,1,1,128,1,Secondary,Basic,100,1,0,0,1,0,0,20,13.9,-0.3,0.79,Graduate
1,1,1,9500,1,1,152,1,Basic,Basic,156.9,0,0,0,1,0,1,18,15.5,2.8,-4.06,Graduate
1,42,4,9500,1,6,133,1,Secondary,Basic,127.8,1,0,0,1,0,1,18,7.6,2.6,0.32,Graduate
1,42,1,9773,1,6,120,1,Unknown,Unknown,122,1,0,0,1,0,0,34,7.6,2.6,0.32,Graduate
1,42,1,9500,1,1,123,1,Basic,Basic,123,1,0,0,1,0,1,21,9.4,-0.8,-3.12,Graduate
1,1,2,9085,1,1,122,1,Secondary,Secondary,126.2,0,0,0,1,0,0,19,12.4,0.5,1.79,Graduate
4,39,2,9556,1,19,133.1,1,Basic,Basic,123,0,0,0,1,0,1,37,10.8,1.4,1.74,Graduate
1,1,1,9238,1,1,133.1,1,Secondary,Secondary,110,0,0,1,1,0,0,23,12.7,3.7,-1.7,Graduate
1,44,1,9003,1,39,140,1,Basic,Basic,140,0,0,0,1,0,0,19,12.4,0.5,1.79,Graduate
1,1,1,9670,1,1,127,1,Higher,Basic,127,1,0,0,1,1,0,18,12.4,0.5,1.79,Graduate
1,1,1,9670,1,1,130,1,Basic,Basic,121.6,0,0,0,1,0,0,19,12.4,0.5,1.79,Graduate
1,7,1,9085,1,40,130,1,Secondary,Secondary,130,1,0,0,1,0,0,22,11.1,0.6,2.02,Graduate
1,1,3,9773,1,1,129,1,Basic,Basic,142,1,0,0,1,0,0,19,9.4,-0.8,-3.12,Graduate
1,39,1,9003,1,3,130,1,Higher,Higher,150,0,0,0,1,0,0,35,16.2,0.3,-0.92,Graduate
1,42,1,9500,1,1,111,1,Secondary,Higher,128.2,1,0,0,1,1,0,23,9.4,-0.8,-3.12,Graduate
1,17,1,9500,1,1,150,1,Basic,Basic,130.8,0,0,0,1,1,0,24,13.9,-0.3,0.79,Graduate
1,44,1,9085,1,39,140,1,Higher,Higher,140,1,0,0,1,0,0,19,13.9,-0.3,0.79,Graduate
1,44,1,9085,1,39,140,1,Higher,Secondary,140,1,0,0,1,0,1,20,12.4,0.5,1.79,Graduate
1,15,1,9254,1,1,140,26,Basic,Secondary,140,1,0,0,0,0,0,21,13.9,-0.3,0.79,Graduate
1,1,1,9500,1,1,148,1,Secondary,Secondary,127,1,0,0,1,1,0,20,10.8,1.4,1.74,Graduate
1,39,1,8014,0,19,133.1,1,Basic,Basic,131.5,0,0,1,1,0,1,39,11.1,0.6,2.02,Graduate
2,43,1,8014,0,1,110,1,Basic,Basic,100,0,0,0,1,0,0,34,9.4,-0.8,-3.12,Graduate
1,1,5,9500,1,1,146,1,Basic,Basic,133.8,1,0,0,1,0,0,19,9.4,-0.8,-3.12,Graduate
1,1,1,9070,1,1,153,1,Higher,Higher,146.7,1,0,0,1,0,0,18,12.7,3.7,-1.7,Graduate
2,39,1,9853,1,19,133.1,1,Basic,Basic,131,0,0,0,1,0,1,32,13.9,-0.3,0.79,Graduate
1,1,6,9500,1,1,143,1,Basic,Basic,135.3,1,0,0,1,0,0,18,9.4,-0.8,-3.12,Graduate
1,39,1,9003,1,19,133.1,1,Basic,Basic,100,0,0,0,1,0,0,60,13.9,-0.3,0.79,Graduate
2,39,1,8014,0,19,133.1,1,Basic,Basic,112.5,0,0,0,1,0,0,32,9.4,-0.8,-3.12,Graduate
1,18,1,9500,1,1,135,1,Higher,Higher,125.8,1,0,0,1,0,0,18,10.8,1.4,1.74,Graduate
1,1,1,9500,1,1,138,1,Basic,Basic,141,0,0,0,1,1,0,19,7.6,2.6,0.32,Graduate
1,1,1,9773,1,1,140,1,Basic,Basic,132,0,0,0,1,1,1,18,12.7,3.7,-1.7,Graduate
1,1,1,9773,1,1,125,1,Higher,Basic,125.7,1,0,0,1,0,0,19,8.9,1.4,3.51,Graduate
1,1,1,9085,1,1,134,1,Basic,Basic,128.4,1,0,0,1,0,1,19,10.8,1.4,1.74,Graduate
1,1,2,9670,1,1,111,1,Basic,Basic,114.2,1,0,0,1,0,0,18,12.4,0.5,1.79,Graduate
1,17,3,9238,1,1,122,1,Basic,Basic,117.5,1,0,0,1,0,0,19,8.9,1.4,3.51,Graduate
1,1,4,9070,1,1,136,1,Basic,Basic,136.7,1,0,0,1,0,0,20,10.8,1.4,1.74,Graduate
1,17,1,9070,1,1,118,1,Basic,Basic,111,1,0,0,1,0,0,21,7.6,2.6,0.32,Graduate
1,1,1,9238,1,1,143,1,Basic,Secondary,144.4,1,0,0,1,0,0,20,10.8,1.4,1.74,Graduate
1,1,1,171,1,1,135,1,Secondary,Basic,137.5,1,0,1,0,1,0,19,12.7,3.7,-1.7,Graduate
1,1,1,9500,1,1,147,1,Higher,Secondary,131.6,0,0,0,1,0,0,18,11.1,0.6,2.02,Graduate
1,1,4,9500,1,1,128,1,Secondary,Secondary,125.2,1,0,0,1,1,1,18,12.4,0.5,1.79,Graduate
2,39,1,8014,0,1,120,1,Basic,Basic,110.5,0,0,0,1,0,1,36,10.8,1.4,1.74,Graduate
1,1,3,9085,1,1,133,1,Secondary,Basic,128.2,0,0,0,1,0,0,21,7.6,2.6,0.32,Graduate
1,1,1,9085,1,1,145,1,Basic,Basic,139.8,1,0,0,1,0,0,20,12.7,3.7,-1.7,Graduate
1,39,1,9500,1,3,122,1,Basic,Secondary,135.8,0,0,0,1,0,0,24,10.8,1.4,1.74,Graduate
1,43,1,9147,1,1,123,1,Basic,Basic,106.2,0,0,0,1,0,0,49,12.7,3.7,-1.7,Graduate
1,18,2,9556,1,1,126,1,Higher,Higher,115.5,0,0,0,1,1,0,18,8.9,1.4,3.51,Graduate
1,17,1,9254,1,1,115,1,Secondary,Basic,109.4,1,0,0,1,0,0,19,11.1,0.6,2.02,Graduate
5,42,1,9254,1,2,120,1,Basic,Basic,120,0,0,0,1,0,0,32,10.8,1.4,1.74,Graduate
1,1,1,9853,1,1,132,1,Secondary,Basic,122.9,1,0,0,1,0,0,20,11.1,0.6,2.02,Graduate
4,39,1,9147,1,1,140,1,Basic,Basic,142.8,0,0,0,1,0,0,43,7.6,2.6,0.32,Graduate
1,43,1,9238,1,1,142,1,Unknown,Unknown,131.9,0,0,0,1,0,1,29,9.4,-0.8,-3.12,Graduate
1,1,1,9500,1,1,156,1,Higher,Higher,140.8,0,0,0,1,0,0,18,12.7,3.7,-1.7,Graduate
1,43,2,9238,1,1,110,1,Basic,Basic,112.5,1,0,0,1,0,1,53,9.4,-0.8,-3.12,Graduate
1,17,1,9238,1,1,151,1,Basic,Secondary,144.4,1,0,0,1,0,0,18,16.2,0.3,-0.92,Graduate
1,1,1,9670,1,1,100,1,Basic,Basic,100,0,0,0,1,0,0,20,11.1,0.6,2.02,Graduate
1,16,4,9254,1,1,126,1,Basic,Basic,118.7,1,0,0,1,0,1,21,8.9,1.4,3.51,Graduate
1,1,2,9500,1,1,149,1,Higher,Secondary,137.5,0,0,0,1,1,0,19,12.7,3.7,-1.7,Graduate
1,17,5,9773,1,1,146,1,Secondary,Basic,146.7,1,0,0,1,1,0,19,7.6,2.6,0.32,Graduate
1,18,2,9500,1,1,141,24,Secondary,Secondary,126.8,1,0,0,1,0,1,20,9.4,-0.8,-3.12,Graduate
1,39,1,9670,1,1,130,1,Basic,Higher,159,0,0,0,1,0,1,51,12.4,0.5,1.79,Graduate
1,39,1,9500,1,19,133.1,1,Secondary,Higher,100,0,0,0,1,0,0,24,12.7,3.7,-1.7,Graduate
2,7,1,9670,1,3,110,1,Basic,Basic,110,0,0,0,1,0,0,32,13.9,-0.3,0.79,Graduate
1,53,1,9003,1,42,130,1,Secondary,Basic,128.5,0,0,0,1,1,0,21,8.9,1.4,3.51,Graduate
1,17,1,9853,1,1,141,1,Basic,Basic,142.8,0,0,0,1,0,1,19,16.2,0.3,-0.92,Graduate
2,39,1,8014,0,1,140,1,Basic,Basic,128,0,0,0,1,0,1,43,8.9,1.4,3.51,Graduate
4,39,1,8014,0,1,130,1,Basic,Basic,138,0,0,0,1,0,0,42,8.9,1.4,3.51,Graduate
1,1,3,9500,1,1,144,1,Basic,Basic,128,1,0,0,1,0,1,18,10.8,1.4,1.74,Graduate
1,44,1,9085,1,39,150,1,Basic,Basic,150,1,0,0,1,0,1,22,13.9,-0.3,0.79,Graduate
1,18,1,9500,1,1,130,1,Basic,Basic,119.3,1,0,0,1,0,1,19,10.8,1.4,1.74,Graduate
1,44,1,9003,1,39,160,1,Basic,Basic,160,0,0,0,1,1,1,22,16.2,0.3,-0.92,Graduate
1,1,1,9070,1,1,115,1,Basic,Secondary,123.4,0,0,0,1,0,0,23,13.9,-0.3,0.79,Graduate
1,1,5,9500,1,1,139,1,Basic,Basic,126.3,1,0,0,1,0,1,18,9.4,-0.8,-3.12,Graduate
1,17,1,9238,1,1,125,1,Higher,Higher,119.8,0,0,0,1,0,0,18,16.2,0.3,-0.92,Graduate
1,43,1,9238,1,39,120,1,Higher,Secondary,118.6,0,0,0,1,1,0,21,13.9,-0.3,0.79,Graduate
1,51,1,9070,1,1,132,1,Basic,Basic,120,0,0,0,1,0,1,23,11.1,0.6,2.02,Graduate
1,43,4,171,1,1,117,1,Basic,Secondary,109.3,0,0,0,1,1,0,19,9.4,-0.8,-3.12,Graduate
1,17,4,9147,1,1,120,1,Basic,Basic,111.3,1,0,0,1,0,0,21,8.9,1.4,3.51,Graduate
1,43,1,9500,1,1,148,1,Basic,Basic,131,1,0,0,1,0,1,22,7.6,2.6,0.32,Graduate
1,1,1,9238,1,1,135,1,Secondary,Secondary,122.8,0,0,0,1,0,0,18,10.8,1.4,1.74,Graduate
1,1,2,9070,1,1,124,1,Basic,Secondary,123.7,1,0,0,1,0,1,18,13.9,-0.3,0.79,Graduate
1,1,1,8014,0,1,126,1,Basic,Basic,118.7,0,0,0,1,0,0,19,12.7,3.7,-1.7,Graduate
1,17,1,9085,1,1,133.1,1,Secondary,Basic,130,0,0,0,1,1,0,22,7.6,2.6,0.32,Graduate
1,1,2,9500,1,1,125,1,Basic,Basic,114.9,0,0,0,1,0,0,18,16.2,0.3,-0.92,Graduate
1,1,1,9147,1,1,127,1,Secondary,Higher,121.8,0,0,0,1,1,0,19,16.2,0.3,-0.92,Graduate
1,51,1,8014,0,1,121,1,Secondary,Basic,112.3,0,0,0,1,0,0,22,16.2,0.3,-0.92,Graduate
1,1,1,9238,1,1,134,1,Secondary,Secondary,124.2,1,0,1,1,0,1,19,9.4,-0.8,-3.12,Graduate
1,39,1,9003,1,1,133.1,1,Basic,Basic,120,0,0,0,1,1,0,30,13.9,-0.3,0.79,Graduate
2,43,1,9991,0,1,110,1,Basic,Basic,132.5,0,0,0,1,1,0,37,9.4,-0.8,-3.12,Graduate
1,39,1,9991,0,1,150,1,Secondary,Basic,120,0,0,0,1,1,0,25,9.4,-0.8,-3.12,Graduate
1,17,1,9773,1,1,150,1,Basic,Basic,137.8,1,0,0,1,0,1,18,8.9,1.4,3.51,Graduate
1,1,1,171,1,1,133.1,1,Basic,Basic,131.8,1,0,1,1,0,0,20,8.9,1.4,3.51,Graduate
1,44,2,9238,1,39,150,1,Higher,Basic,147,1,0,0,1,0,0,19,12.4,0.5,1.79,Graduate
1,39,1,9238,1,12,100,1,Basic,Basic,124.3,0,0,0,1,1,0,47,10.8,1.4,1.74,Graduate
1,1,1,171,1,1,169,1,Basic,Basic,176,1,0,0,1,0,1,18,12.4,0.5,1.79,Graduate
1,1,6,9500,1,1,150,1,Basic,Basic,131.5,1,0,0,1,0,1,19,12.7,3.7,-1.7,Graduate
1,17,1,9500,1,1,131,1,Secondary,Secondary,126.3,0,0,0,1,1,0,19,16.2,0.3,-0.92,Graduate
1,7,1,9500,1,3,130,1,Basic,Basic,130,1,0,0,1,0,0,23,7.6,2.6,0.32,Graduate
1,1,1,9500,1,1,130,1,Basic,Basic,116.8,0,0,0,1,0,0,20,12.7,3.7,-1.7,Graduate
1,18,1,9500,1,1,144,1,Basic,Basic,127.5,1,0,0,1,0,1,19,12.7,3.7,-1.7,Graduate
1,17,2,9070,1,1,136,1,Basic,Basic,140.9,1,0,0,1,0,0,19,9.4,-0.8,-3.12,Graduate
1,17,1,9500,1,1,143,1,Basic,Basic,130.6,1,0,0,1,0,0,20,16.2,0.3,-0.92,Graduate
1,1,3,9500,1,1,137,1,Basic,Basic,126.5,1,0,0,1,0,1,19,9.4,-0.8,-3.12,Graduate
1,17,3,9773,1,1,132,1,Secondary,Secondary,124.3,1,0,1,1,0,1,19,15.5,2.8,-4.06,Graduate
1,1,2,9500,1,1,116,1,Basic,Basic,109,1,0,0,1,0,1,23,11.1,0.6,2.02,Graduate
1,1,4,9500,1,1,128,1,Basic,Secondary,124.3,1,0,0,1,1,0,19,10.8,1.4,1.74,Graduate
1,1,1,9773,1,1,130,1,Secondary,Basic,128.6,1,0,0,1,1,0,19,9.4,-0.8,-3.12,Graduate
1,1,3,9238,1,1,126,1,Basic,Basic,120.8,1,0,0,1,0,0,19,12.4,0.5,1.79,Graduate
1,44,1,9003,1,39,140,1,Basic,Basic,140,1,0,0,1,1,0,19,12.4,0.5,1.79,Graduate
1,1,1,9147,1,1,133,1,Basic,Basic,129.9,0,0,0,1,1,0,18,12.4,0.5,1.79,Graduate
1,53,1,9147,1,42,140,1,Higher,Higher,140.2,0,0,0,1,0,0,20,8.9,1.4,3.51,Graduate
1,1,3,171,1,1,139,1,Basic,Basic,128.2,1,0,0,1,1,1,19,10.8,1.4,1.74,Graduate
1,1,1,9147,1,1,127,1,Basic,Basic,117.9,0,0,0,1,0,1,20,8.9,1.4,3.51,Graduate
1,1,6,9500,1,1,133,1,Basic,Basic,128.8,1,0,0,1,0,1,18,15.5,2.8,-4.06,Graduate
1,1,4,9254,1,1,132,1,Secondary,Basic,122.6,1,0,0,1,0,1,18,8.9,1.4,3.51,Graduate
1,1,1,9500,1,1,144,1,Basic,Basic,125.8,0,0,0,1,0,1,19,12.7,3.7,-1.7,Graduate
1,1,6,9500,1,1,118,1,Basic,Basic,113.5,1,0,0,1,1,0,18,12.4,0.5,1.79,Graduate
1,17,4,9085,1,1,138,1,Basic,Basic,134.9,1,0,0,1,0,0,20,7.6,2.6,0.32,Graduate
2,43,1,9254,1,3,120,1,Basic,Basic,120,1,0,0,1,0,0,33,9.4,-0.8,-3.12,Graduate
1,17,2,9147,1,1,125,1,Basic,Basic,114.5,1,0,0,1,0,1,19,12.4,0.5,1.79,Graduate
1,1,4,9500,1,1,160,1,Basic,Basic,133,1,0,0,1,1,1,18,12.7,3.7,-1.7,Graduate
1,5,2,9853,1,1,124,1,Basic,Basic,113.9,1,0,0,1,0,1,19,12.7,3.7,-1.7,Graduate
1,1,3,9500,1,1,143,1,Basic,Basic,127,1,0,0,1,0,0,18,9.4,-0.8,-3.12,Graduate
1,1,1,171,1,1,133.1,1,Higher,Secondary,128.2,1,0,0,1,0,0,20,11.1,0.6,2.02,Graduate
1,1,2,9773,1,1,142,1,Basic,Basic,132.9,1,0,0,1,1,0,18,10.8,1.4,1.74,Graduate
1,17,3,9500,1,1,141,1,Basic,Secondary,129,1,0,0,1,0,1,18,7.6,2.6,0.32,Graduate
1,1,1,9670,1,1,137,1,Basic,Basic,122.3,0,0,0,1,1,1,18,12.4,0.5,1.79,Graduate
1,1,1,9254,1,1,158,1,Basic,Secondary,153.5,1,0,0,1,0,0,20,11.1,0.6,2.02,Graduate
1,44,1,9238,1,39,150,1,Secondary,Basic,145.6,1,0,0,1,0,1,20,13.9,-0.3,0.79,Graduate
1,1,1,9670,1,1,146,1,Secondary,Secondary,149.5,1,0,0,1,1,1,17,11.1,0.6,2.02,Graduate
1,1,2,9238,1,1,134,1,Secondary,Basic,126,0,0,0,1,0,0,18,10.8,1.4,1.74,Graduate
1,1,4,9238,1,1,127,1,Secondary,Basic,120.4,1,0,0,1,0,1,19,11.1,0.6,2.02,Graduate
1,39,1,9003,1,1,130,1,Basic,Basic,120,0,0,0,1,1,0,32,15.5,2.8,-4.06,Graduate
1,1,1,9147,1,1,177,1,Secondary,Basic,162.3,0,0,0,1,0,1,18,15.5,2.8,-4.06,Graduate
1,39,1,9085,1,19,133.1,1,Basic,Basic,139.9,1,0,0,1,0,1,24,8.9,1.4,3.51,Graduate
1,1,2,9070,1,1,121,1,Basic,Basic,116.1,1,0,0,1,0,0,22,12.7,3.7,-1.7,Graduate
1,16,1,171,1,1,122,1,Basic,Basic,133.9,1,0,0,1,1,0,25,12.4,0.5,1.79,Dropout_Enrolled
1,1,1,9070,1,1,140,1,Basic,Basic,138.3,0,0,0,1,1,0,20,13.9,-0.3,0.79,Dropout_Enrolled
1,44,1,9003,1,39,150,1,Higher,Higher,150,0,0,0,1,1,0,25,15.5,2.8,-4.06,Dropout_Enrolled
2,39,1,9147,1,1,130,1,Secondary,Basic,109.9,0,0,0,0,0,0,29,12.7,3.7,-1.7,Dropout_Enrolled
1,17,1,9238,1,1,148,1,Secondary,Secondary,129.8,0,0,0,1,0,0,20,15.5,2.8,-4.06,Dropout_Enrolled
1,18,4,9853,1,1,118,1,Basic,Basic,111.4,1,0,1,0,0,0,20,11.1,0.6,2.02,Dropout_Enrolled
1,17,4,9773,1,1,129,1,Higher,Secondary,132.5,1,0,0,1,1,0,21,10.8,1.4,1.74,Dropout_Enrolled
1,43,2,9773,1,1,120,1,Unknown,Unknown,103.6,1,0,0,1,0,0,27,9.4,-0.8,-3.12,Dropout_Enrolled
1,43,1,9991,0,1,120,1,Basic,Basic,120,1,0,1,1,1,0,34,10.8,1.4,1.74,Dropout_Enrolled
1,1,3,9147,1,1,127,1,Secondary,Basic,123.5,1,0,0,1,0,1,19,9.4,-0.8,-3.12,Dropout_Enrolled
2,39,1,9556,1,1,160,1,Basic,Basic,120,0,0,0,1,0,0,31,12.7,3.7,-1.7,Dropout_Enrolled
1,15,1,9147,1,1,133.1,41,Higher,Secondary,100,0,0,1,0,1,0,26,11.1,0.6,2.02,Dropout_Enrolled
1,17,3,9853,1,1,118,1,Basic,Basic,121.2,1,0,0,1,0,0,18,7.6,2.6,0.32,Dropout_Enrolled
1,1,2,9085,1,1,130,1,Basic,Basic,129,0,0,0,1,0,0,20,7.6,2.6,0.32,Dropout_Enrolled
1,7,1,9085,1,3,120,1,Basic,Basic,120,0,0,0,1,0,0,32,15.5,2.8,-4.06,Dropout_Enrolled
2,7,1,8014,0,3,120,1,Basic,Secondary,120,0,0,0,0,0,0,35,10.8,1.4,1.74,Dropout_Enrolled
1,1,2,9853,1,1,133,1,Basic,Basic,130.2,1,0,0,1,0,0,19,12.7,3.7,-1.7,Dropout_Enrolled
1,43,1,9500,1,1,133.1,1,Basic,Basic,114.5,0,0,0,1,0,0,23,16.2,0.3,-0.92,Dropout_Enrolled
1,17,1,9147,1,1,136,1,Secondary,Secondary,122.7,1,0,0,1,1,0,18,15.5,2.8,-4.06,Dropout_Enrolled
1,1,1,9085,1,1,130,1,Secondary,Basic,134.2,1,0,0,1,0,0,20,9.4,-0.8,-3.12,Dropout_Enrolled
2,39,1,9003,1,1,130,1,Secondary,Basic,122,0,0,1,0,1,0,25,15.5,2.8,-4.06,Dropout_Enrolled
1,39,1,9254,1,19,133.1,1,Basic,Basic,102.5,0,0,1,0,1,0,24,16.2,0.3,-0.92,Dropout_Enrolled
1,1,4,9147,1,1,146,1,Higher,Secondary,138.7,0,0,0,1,1,0,18,8.9,1.4,3.51,Dropout_Enrolled
1,43,1,9147,1,1,151,1,Secondary,Higher,111,0,0,0,1,1,0,28,15.5,2.8,-4.06,Dropout_Enrolled
1,39,1,9991,0,1,150,1,Basic,Basic,150,0,0,0,1,0,0,27,15.5,2.8,-4.06,Dropout_Enrolled
1,17,1,9147,1,1,130,1,Basic,Secondary,117.8,1,0,0,1,1,0,20,10.8,1.4,1.74,Dropout_Enrolled
1,17,2,9853,1,1,138,1,Secondary,Secondary,123,1,0,0,1,0,0,23,10.8,1.4,1.74,Dropout_Enrolled
1,1,1,9991,0,1,131,1,Basic,Basic,118.4,1,0,0,1,0,0,20,7.6,2.6,0.32,Dropout_Enrolled
1,43,1,9130,1,1,133.1,6,Basic,Basic,100,0,0,0,1,0,0,37,13.9,-0.3,0.79,Dropout_Enrolled
1,44,1,9003,1,39,130,1,Higher,Higher,130,1,0,0,1,1,0,20,15.5,2.8,-4.06,Dropout_Enrolled
2,39,1,9853,1,1,133.1,1,Basic,Basic,116.5,0,0,0,1,0,0,34,16.2,0.3,-0.92,Dropout_Enrolled
1,44,1,9119,1,39,180,1,Secondary,Secondary,180,0,0,0,1,1,1,20,12.4,0.5,1.79,Dropout_Enrolled
1,17,1,9130,1,1,157,1,Higher,Higher,150.9,1,0,0,1,0,0,18,13.9,-0.3,0.79,Dropout_Enrolled
1,1,1,9147,1,1,130,1,Basic,Basic,119.5,1,0,0,1,1,1,18,12.4,0.5,1.79,Dropout_Enrolled
1,7,1,8014,0,40,130,1,Basic,Secondary,130,1,0,1,0,0,0,23,13.9,-0.3,0.79,Dropout_Enrolled
1,44,1,9119,1,39,130,1,Basic,Higher,130,0,0,1,0,1,0,23,15.5,2.8,-4.06,Dropout_Enrolled
1,17,1,9003,1,1,170,1,Secondary,Higher,144.1,1,0,1,0,1,0,26,16.2,0.3,-0.92,Dropout_Enrolled
1,44,1,9130,1,39,160,1,Secondary,Basic,160,1,0,1,0,0,0,36,12.4,0.5,1.79,Dropout_Enrolled
1,17,1,171,1,1,145,1,Basic,Basic,130,1,0,0,1,0,0,23,11.1,0.6,2.02,Dropout_Enrolled
1,17,1,9773,1,1,125,1,Higher,Higher,118,1,0,0,1,1,0,19,13.9,-0.3,0.79,Dropout_Enrolled
4,43,1,8014,0,12,133.1,1,Unknown,Unknown,106,1,0,0,1,0,0,48,7.6,2.6,0.32,Dropout_Enrolled
1,39,1,9130,1,1,120,1,Secondary,Basic,150,0,0,0,1,1,0,25,12.4,0.5,1.79,Dropout_Enrolled
1,44,1,9085,1,39,140,1,Basic,Basic,140,1,0,0,1,0,0,21,16.2,0.3,-0.92,Dropout_Enrolled
1,17,1,9119,1,1,131,1,Secondary,Higher,123.7,1,0,0,1,1,0,20,10.8,1.4,1.74,Dropout_Enrolled
1,39,1,9003,1,1,160,1,Secondary,Basic,140,0,0,0,1,1,0,27,11.1,0.6,2.02,Dropout_Enrolled
1,17,3,9670,1,1,110,1,Basic,Secondary,107.5,1,0,0,1,0,1,18,12.7,3.7,-1.7,Dropout_Enrolled
2,39,1,8014,0,19,133.1,1,Higher,Basic,123.5,0,0,0,1,0,0,50,10.8,1.4,1.74,Dropout_Enrolled
1,17,3,9147,1,1,120,1,Basic,Basic,115.5,1,0,1,1,1,0,18,10.8,1.4,1.74,Dropout_Enrolled
1,1,1,171,1,1,180,41,Basic,Basic,152.7,1,0,1,0,1,0,27,7.6,2.6,0.32,Dropout_Enrolled
1,17,2,9147,1,1,118,1,Basic,Secondary,113.5,1,0,1,1,0,0,20,11.1,0.6,2.02,Dropout_Enrolled
1,1,1,9119,1,1,150,1,Secondary,Secondary,143.4,0,0,0,0,1,1,18,8.9,1.4,3.51,Dropout_Enrolled
1,17,5,9070,1,1,122,1,Basic,Basic,119.6,0,0,1,0,0,0,21,10.8,1.4,1.74,Dropout_Enrolled
1,43,1,9500,1,19,133.1,1,Unknown,Unknown,110,1,0,0,1,1,0,27,7.6,2.6,0.32,Dropout_Enrolled
1,43,1,9070,1,1,135,1,Basic,Basic,122.8,1,0,0,1,1,1,20,10.8,1.4,1.74,Dropout_Enrolled
1,42,1,9119,1,1,140,1,Higher,Higher,133.6,1,0,0,1,1,0,22,10.8,1.4,1.74,Dropout_Enrolled
1,17,1,9670,1,1,115,1,Secondary,Secondary,109.1,1,0,0,1,0,1,19,12.4,0.5,1.79,Dropout_Enrolled
1,17,3,9070,1,1,131,1,Basic,Basic,120.2,1,0,0,1,1,0,18,15.5,2.8,-4.06,Dropout_Enrolled
1,17,1,9254,1,1,122,1,Basic,Basic,114.3,0,0,0,0,0,0,20,15.5,2.8,-4.06,Dropout_Enrolled
1,39,1,8014,0,1,133.1,1,Basic,Basic,148.5,0,0,0,1,1,0,34,11.1,0.6,2.02,Dropout_Enrolled
1,39,1,9991,0,1,120,1,Basic,Basic,140,0,0,0,1,0,0,25,15.5,2.8,-4.06,Dropout_Enrolled
1,1,1,9130,1,1,120,1,Basic,Basic,116.1,1,0,0,1,1,0,22,12.7,3.7,-1.7,Dropout_Enrolled
1,17,1,9147,1,1,118,1,Secondary,Basic,118.4,1,0,0,1,1,0,19,12.4,0.5,1.79,Dropout_Enrolled
1,17,1,9853,1,1,127,1,Basic,Basic,121.8,1,0,1,1,0,0,18,10.8,1.4,1.74,Dropout_Enrolled
1,17,3,9070,1,1,116,1,Basic,Basic,110.8,0,0,0,1,0,0,18,7.6,2.6,0.32,Dropout_Enrolled
1,17,3,9119,1,1,117,1,Secondary,Higher,119.8,1,0,0,1,1,0,19,11.1,0.6,2.02,Dropout_Enrolled
2,39,2,9670,1,1,100,1,Basic,Basic,100,0,0,0,1,0,0,35,9.4,-0.8,-3.12,Dropout_Enrolled
1,39,1,9254,1,19,133.1,1,Basic,Secondary,97,0,0,1,0,1,0,36,15.5,2.8,-4.06,Dropout_Enrolled
1,1,1,9254,1,1,160,1,Basic,Basic,140.8,1,0,0,1,1,0,23,7.6,2.6,0.32,Dropout_Enrolled
1,1,1,9238,1,1,133.1,1,Secondary,Basic,107,1,0,0,1,0,0,19,11.1,0.6,2.02,Dropout_Enrolled
1,1,1,9773,1,1,143,1,Secondary,Higher,149,1,0,0,1,0,0,18,11.1,0.6,2.02,Dropout_Enrolled
2,39,1,9991,0,39,140,1,Basic,Basic,110,0,0,0,1,0,1,35,12.7,3.7,-1.7,Dropout_Enrolled
1,17,4,9853,1,1,143,1,Basic,Basic,127.3,1,0,0,1,0,0,18,10.8,1.4,1.74,Dropout_Enrolled
1,39,1,8014,0,1,140,1,Basic,Basic,122,1,0,1,0,1,0,29,12.4,0.5,1.79,Dropout_Enrolled
1,1,4,9070,1,1,140,1,Higher,Basic,125,1,0,0,1,1,0,19,9.4,-0.8,-3.12,Dropout_Enrolled
1,39,1,9085,1,1,140,1,Higher,Higher,141.7,1,0,0,1,0,0,27,12.4,0.5,1.79,Dropout_Enrolled
1,43,1,9773,1,1,128,1,Basic,Basic,124.2,1,0,0,1,1,0,22,15.5,2.8,-4.06,Dropout_Enrolled
1,1,2,171,1,1,136,1,Secondary,Secondary,134.3,1,0,1,1,0,0,19,12.4,0.5,1.79,Dropout_Enrolled
2,42,1,9147,1,1,133.1,1,Basic,Basic,115.8,0,0,0,0,1,0,49,10.8,1.4,1.74,Dropout_Enrolled
1,18,2,9853,1,1,120,1,Secondary,Secondary,115.8,0,0,0,1,0,0,18,13.9,-0.3,0.79,Dropout_Enrolled
1,44,1,9003,1,39,140,1,Basic,Basic,140,0,0,0,1,0,0,24,12.4,0.5,1.79,Dropout_Enrolled
1,1,5,9500,1,1,125,1,Higher,Basic,120.3,1,0,0,1,0,0,19,13.9,-0.3,0.79,Dropout_Enrolled
1,17,2,9085,1,1,133.1,1,Basic,Basic,100,1,0,1,0,1,0,19,12.4,0.5,1.79,Dropout_Enrolled
1,5,4,9119,1,1,115,1,Basic,Basic,113.3,1,0,0,1,1,0,23,7.6,2.6,0.32,Dropout_Enrolled
1,17,1,9130,1,1,122,1,Basic,Basic,121.7,1,0,0,0,0,0,22,9.4,-0.8,-3.12,Dropout_Enrolled
1,17,1,9147,1,1,117,1,Basic,Basic,109.3,0,0,0,0,0,0,22,9.4,-0.8,-3.12,Dropout_Enrolled
1,17,2,9254,1,1,118,1,Basic,Basic,121.2,0,0,0,1,1,1,18,15.5,2.8,-4.06,Dropout_Enrolled
1,43,1,9670,1,39,110,1,Basic,Higher,110,0,0,0,1,0,0,21,16.2,0.3,-0.92,Dropout_Enrolled
1,15,1,9500,1,1,190,108,Higher,Higher,190,1,0,0,1,0,0,18,12.4,0.5,1.79,Dropout_Enrolled
1,1,1,9254,1,1,100,1,Basic,Basic,101.8,1,0,0,1,0,0,21,12.4,0.5,1.79,Dropout_Enrolled
1,17,1,9254,1,1,119,1,Basic,Basic,118,1,0,0,1,1,0,19,10.8,1.4,1.74,Dropout_Enrolled
1,1,1,9773,1,1,146,1,Basic,Basic,128.5,0,0,1,1,0,0,19,10.8,1.4,1.74,Dropout_Enrolled
1,39,1,9085,1,1,133.1,1,Secondary,Secondary,120,0,0,1,0,1,0,31,9.4,-0.8,-3.12,Dropout_Enrolled
1,7,1,9070,1,3,120,1,Higher,Higher,120,0,0,0,1,1,0,28,12.7,3.7,-1.7,Dropout_Enrolled
1,18,1,9119,1,1,148,1,Higher,Basic,147.7,0,0,0,1,1,1,18,9.4,-0.8,-3.12,Dropout_Enrolled
1,17,2,9085,1,1,120,1,Secondary,Secondary,115,0,0,0,0,0,0,20,7.6,2.6,0.32,Dropout_Enrolled
1,1,2,9147,1,1,128,1,Secondary,Secondary,120.3,0,0,0,1,1,0,19,8.9,1.4,3.51,Dropout_Enrolled
1,18,1,9773,1,1,125,1,Basic,Basic,122.2,0,0,0,0,0,0,18,11.1,0.6,2.02,Dropout_Enrolled
1,1,5,9500,1,1,141,1,Basic,Basic,132.5,1,0,0,0,0,0,19,12.7,3.7,-1.7,Dropout_Enrolled
1,1,1,9119,1,1,163,1,Basic,Basic,150.8,1,0,0,1,1,0,18,7.6,2.6,0.32,Dropout_Enrolled
1,39,1,9254,1,19,133.1,1,Basic,Basic,100,0,0,0,1,1,0,48,7.6,2.6,0.32,Dropout_Enrolled
2,39,1,9500,1,3,130,1,Secondary,Secondary,140,0,0,1,0,0,0,30,13.9,-0.3,0.79,Dropout_Enrolled
1,43,1,33,1,1,143,1,Basic,Secondary,121.2,1,0,0,1,1,0,25,12.4,0.5,1.79,Dropout_Enrolled
1,1,1,9773,1,1,143,1,Secondary,Basic,136.7,1,0,0,1,0,1,18,11.1,0.6,2.02,Dropout_Enrolled
1,39,1,9085,1,12,133.1,1,Basic,Basic,144,0,0,0,1,1,0,51,12.4,0.5,1.79,Dropout_Enrolled
2,39,1,8014,0,1,133.1,1,Basic,Basic,100,0,0,1,1,0,0,37,13.9,-0.3,0.79,Dropout_Enrolled
1,17,4,9254,1,1,118,1,Basic,Basic,111.7,1,0,0,1,1,0,18,12.4,0.5,1.79,Dropout_Enrolled
2,39,1,9991,0,19,133.1,1,Basic,Basic,111.9,1,0,0,1,1,0,41,7.6,2.6,0.32,Dropout_Enrolled
1,7,1,8014,0,3,130,1,Basic,Basic,130,0,0,0,0,0,0,28,12.7,3.7,-1.7,Dropout_Enrolled
1,44,1,9130,1,39,140,1,Secondary,Basic,140,0,0,0,1,0,0,19,12.7,3.7,-1.7,Dropout_Enrolled
1,39,1,9991,0,1,130,1,Basic,Basic,151.6,0,0,0,1,0,0,24,16.2,0.3,-0.92,Dropout_Enrolled
1,17,2,9500,1,1,131,1,Basic,Secondary,118.4,1,0,0,1,0,1,20,16.2,0.3,-0.92,Dropout_Enrolled
1,1,1,9147,1,1,143,1,Secondary,Secondary,138.8,0,0,0,0,1,0,18,8.9,1.4,3.51,Dropout_Enrolled
1,17,3,9556,1,1,126,1,Basic,Basic,119,1,0,0,1,0,1,19,16.2,0.3,-0.92,Dropout_Enrolled
1,44,1,9003,1,39,140,1,Basic,Basic,140,0,0,0,1,0,0,21,15.5,2.8,-4.06,Dropout_Enrolled
1,1,2,9085,1,1,125,1,Basic,Basic,137.3,0,0,0,1,1,0,18,7.6,2.6,0.32,Dropout_Enrolled
2,39,1,9500,1,1,133.1,1,Basic,Basic,130.1,0,0,0,0,1,0,37,11.1,0.6,2.02,Dropout_Enrolled
1,39,1,9147,1,1,120,1,Secondary,Basic,110,0,0,0,1,1,0,27,15.5,2.8,-4.06,Dropout_Enrolled
1,53,1,9070,1,42,130,1,Higher,Basic,130,1,0,0,0,0,1,22,8.9,1.4,3.51,Dropout_Enrolled
1,1,1,9853,1,1,127,1,Higher,Secondary,137.2,1,0,0,1,0,0,18,10.8,1.4,1.74,Dropout_Enrolled
1,1,3,9500,1,1,113,1,Higher,Secondary,107.8,1,0,0,1,0,1,20,12.4,0.5,1.79,Dropout_Enrolled
1,39,1,8014,0,1,100,1,Secondary,Higher,116.5,0,0,1,0,0,0,37,8.9,1.4,3.51,Dropout_Enrolled
1,1,1,171,1,1,143,1,Higher,Basic,142.7,1,0,0,1,0,0,18,16.2,0.3,-0.92,Dropout_Enrolled
1,1,1,9500,1,1,135,1,Basic,Basic,135.4,1,0,0,1,1,0,21,11.1,0.6,2.02,Dropout_Enrolled
1,17,1,9085,1,1,138,1,Higher,Basic,126.8,1,0,0,1,0,0,18,10.8,1.4,1.74,Dropout_Enrolled
1,17,2,9773,1,1,150,1,Secondary,Secondary,130.8,0,0,0,1,1,0,20,10.8,1.4,1.74,Dropout_Enrolled
1,44,1,9085,1,39,140,1,Basic,Basic,140,0,0,1,0,0,0,20,16.2,0.3,-0.92,Dropout_Enrolled
1,1,3,9773,1,1,136,1,Higher,Secondary,129,1,0,0,1,0,1,19,13.9,-0.3,0.79,Dropout_Enrolled
1,39,1,8014,0,1,120,100,Secondary,Secondary,119.5,0,0,1,1,0,0,25,8.9,1.4,3.51,Dropout_Enrolled
1,39,1,9147,1,1,140,1,Secondary,Higher,118,1,0,0,1,0,0,24,7.6,2.6,0.32,Dropout_Enrolled
1,44,1,9991,0,39,150,1,Basic,Basic,150,0,0,0,1,0,0,31,9.4,-0.8,-3.12,Dropout_Enrolled
1,1,2,9773,1,1,108,1,Basic,Basic,115,1,0,1,0,0,0,20,8.9,1.4,3.51,Dropout_Enrolled
2,39,1,9500,1,19,133.1,1,Basic,Basic,100,0,0,0,1,1,0,33,16.2,0.3,-0.92,Dropout_Enrolled
1,1,3,9773,1,1,131,1,Basic,Basic,127.2,1,0,0,1,0,1,18,8.9,1.4,3.51,Dropout_Enrolled
1,1,1,9500,1,1,123,1,Basic,Basic,119.7,0,0,0,1,1,0,20,13.9,-0.3,0.79,Dropout_Enrolled
1,1,1,171,1,1,147,1,Higher,Higher,145.3,1,0,0,1,0,0,18,12.4,0.5,1.79,Dropout_Enrolled
1,39,2,9147,1,1,143,1,Basic,Higher,100,1,0,0,1,1,0,24,9.4,-0.8,-3.12,Dropout_Enrolled
1,1,3,9070,1,1,125,1,Basic,Basic,125.4,1,0,0,1,0,0,19,9.4,-0.8,-3.12,Dropout_Enrolled
1,18,6,9500,1,1,142,1,Basic,Basic,128,1,0,0,0,0,0,19,11.1,0.6,2.02,Dropout_Enrolled
1,17,2,171,1,1,141,1,Basic,Basic,136.1,1,0,0,1,0,1,18,12.7,3.7,-1.7,Dropout_Enrolled
1,18,2,9853,1,1,123,1,Secondary,Higher,123.7,1,0,1,0,0,0,20,10.8,1.4,1.74,Dropout_Enrolled
1,43,1,9991,0,1,133.1,41,Basic,Basic,114.7,0,0,0,1,0,0,34,10.8,1.4,1.74,Dropout_Enrolled
1,53,1,9085,1,42,130,1,Basic,Basic,128.8,0,0,0,1,0,0,21,8.9,1.4,3.51,Dropout_Enrolled
1,1,5,9853,1,1,123,1,Secondary,Secondary,113.2,1,0,0,1,0,0,20,10.8,1.4,1.74,Dropout_Enrolled
1,51,1,9147,1,1,99,1,Higher,Secondary,99.7,1,0,1,0,0,0,22,8.9,1.4,3.51,Dropout_Enrolled
1,1,1,171,1,1,136,1,Higher,Higher,152.5,1,0,0,1,0,0,20,13.9,-0.3,0.79,Dropout_Enrolled
1,1,5,9670,1,1,120,1,Higher,Secondary,112,1,0,0,1,0,0,18,8.9,1.4,3.51,Dropout_Enrolled
1,44,1,9003,1,1,140,1,Secondary,Basic,140,1,0,1,0,0,0,23,12.4,0.5,1.79,Dropout_Enrolled
1,1,2,9147,1,1,121,1,Basic,Basic,126.3,1,0,0,1,0,0,20,12.7,3.7,-1.7,Dropout_Enrolled
1,16,1,9070,1,1,145,1,Secondary,Secondary,146.1,1,0,0,1,0,0,18,9.4,-0.8,-3.12,Dropout_Enrolled
1,39,1,9991,0,1,150,1,Higher,Secondary,154,0,0,0,1,0,0,27,12.4,0.5,1.79,Dropout_Enrolled
1,42,1,9119,1,1,120,1,Higher,Secondary,108.2,1,0,0,1,1,0,26,7.6,2.6,0.32,Dropout_Enrolled
2,39,1,9991,0,1,133.1,1,Basic,Basic,150,0,0,0,1,1,0,47,9.4,-0.8,-3.12,Dropout_Enrolled
1,1,2,9773,1,1,135,1,Higher,Secondary,136.1,1,0,0,1,1,0,19,8.9,1.4,3.51,Dropout_Enrolled
4,39,1,9130,1,1,140,1,Basic,Basic,150,1,0,0,1,1,0,34,16.2,0.3,-0.92,Dropout_Enrolled
1,1,6,171,1,1,126,1,Secondary,Secondary,130.2,1,0,0,1,1,1,18,9.4,-0.8,-3.12,Dropout_Enrolled
1,39,1,9500,1,1,120,1,Basic,Basic,108.5,0,0,0,1,1,0,36,13.9,-0.3,0.79,Dropout_Enrolled
1,39,1,9991,0,1,140,1,Basic,Basic,140,0,0,0,0,0,0,37,15.5,2.8,-4.06,Dropout_Enrolled
1,39,1,9003,1,19,133.1,1,Higher,Secondary,100,1,0,0,1,1,0,35,13.9,-0.3,0.79,Dropout_Enrolled
1,39,1,9003,1,19,133.1,1,Basic,Basic,140,0,0,1,1,1,0,24,16.2,0.3,-0.92,Dropout_Enrolled
1,17,5,9853,1,1,117,1,Basic,Basic,114.6,1,0,0,1,0,0,19,9.4,-0.8,-3.12,Dropout_Enrolled
1,5,3,9085,1,1,141,1,Secondary,Basic,128.8,1,0,0,1,0,0,19,7.6,2.6,0.32,Dropout_Enrolled
1,43,1,9556,1,1,149,1,Secondary,Secondary,140.2,1,1,0,1,0,0,20,12.7,3.7,-1.7,Dropout_Enrolled
1,1,4,9254,1,1,110,1,Basic,Basic,113.2,1,0,0,1,0,0,24,10.8,1.4,1.74,Dropout_Enrolled
1,1,1,9670,1,1,115,1,Basic,Basic,114.3,0,0,0,1,1,0,18,12.4,0.5,1.79,Dropout_Enrolled
1,43,1,9003,1,1,120,1,Secondary,Secondary,134.4,0,0,0,1,1,0,24,15.5,2.8,-4.06,Dropout_Enrolled
1,7,1,9556,1,3,140,1,Higher,Higher,140,0,0,1,0,1,0,38,13.9,-0.3,0.79,Dropout_Enrolled
1,16,2,9147,1,1,131,1,Basic,Basic,135.9,1,0,0,1,1,0,20,7.6,2.6,0.32,Dropout_Enrolled
1,1,5,9773,1,1,127,1,Basic,Secondary,121.1,1,0,0,1,0,0,18,15.5,2.8,-4.06,Dropout_Enrolled
1,44,1,9085,1,39,140,1,Secondary,Higher,140,1,0,0,1,0,0,29,15.5,2.8,-4.06,Dropout_Enrolled
5,39,1,9147,1,1,133.1,1,Basic,Basic,119.8,0,0,0,1,1,0,26,11.1,0.6,2.02,Dropout_Enrolled
1,17,2,9238,1,1,118,1,Secondary,Basic,110.7,1,1,0,1,0,0,18,12.7,3.7,-1.7,Dropout_Enrolled
1,1,4,9119,1,1,120,1,Higher,Secondary,116.9,0,0,0,1,1,0,18,8.9,1.4,3.51,Dropout_Enrolled
1,39,1,9130,1,1,150,1,Basic,Basic,160,1,0,0,1,1,0,24,9.4,-0.8,-3.12,Dropout_Enrolled
1,1,1,9119,1,1,130,1,Basic,Basic,140.2,1,0,0,1,1,0,20,9.4,-0.8,-3.12,Dropout_Enrolled
1,15,1,9119,1,1,133.1,41,Higher,Higher,100,0,0,1,1,1,0,24,8.9,1.4,3.51,Dropout_Enrolled
1,39,1,9085,1,12,133.1,1,Basic,Basic,138.3,1,0,1,0,1,0,25,8.9,1.4,3.51,Dropout_Enrolled
4,43,1,9853,1,1,133.1,100,Basic,Secondary,100,0,0,0,1,0,0,33,7.6,2.6,0.32,Dropout_Enrolled
1,1,6,9500,1,1,142,1,Secondary,Basic,123.5,1,0,0,1,0,0,19,12.7,3.7,-1.7,Dropout_Enrolled
1,1,1,9500,1,1,149,1,Basic,Basic,138,0,0,0,1,1,0,18,9.4,-0.8,-3.12,Dropout_Enrolled
1,17,1,9085,1,1,137,1,Basic,Basic,122.3,0,0,0,1,0,1,19,7.6,2.6,0.32,Dropout_Enrolled
1,7,1,9991,0,40,150,1,Basic,Basic,150,1,0,0,1,1,0,44,8.9,1.4,3.51,Dropout_Enrolled
1,17,1,9147,1,1,133.1,1,Secondary,Basic,95,0,0,0,1,1,0,20,11.1,0.6,2.02,Dropout_Enrolled
1,44,1,9238,1,39,140,1,Basic,Basic,136.1,1,0,1,1,0,0,21,12.4,0.5,1.79,Dropout_Enrolled
1,1,5,9500,1,1,141,1,Basic,Basic,142.3,1,0,0,1,0,0,18,9.4,-0.8,-3.12,Dropout_Enrolled
1,17,1,9238,1,1,154,1,Basic,Basic,140.4,1,0,0,1,0,1,20,7.6,2.6,0.32,Dropout_Enrolled
1,1,1,9147,1,1,143,1,Higher,Secondary,152.1,1,0,1,1,1,0,18,13.9,-0.3,0.79,Dropout_Enrolled
1,43,1,9773,1,1,121,1,Secondary,Higher,123.8,0,0,0,0,1,0,22,10.8,1.4,1.74,Dropout_Enrolled
2,39,1,9853,1,19,133.1,1,Basic,Basic,100,0,0,0,1,0,0,45,7.6,2.6,0.32,Dropout_Enrolled
1,17,1,9254,1,1,137,1,Unknown,Basic,137.7,1,0,1,0,0,0,19,7.6,2.6,0.32,Dropout_Enrolled
1,17,1,9991,0,1,140,1,Basic,Basic,127.3,0,0,0,1,0,0,20,11.1,0.6,2.02,Dropout_Enrolled
1,44,1,9003,1,39,140,1,Basic,Basic,140,0,0,0,1,0,0,19,15.5,2.8,-4.06,Dropout_Enrolled
1,39,1,9119,1,1,160,1,Secondary,Basic,112,0,0,0,0,1,0,25,9.4,-0.8,-3.12,Dropout_Enrolled
6,39,1,8014,0,1,133.1,1,Basic,Basic,119,0,0,0,1,0,1,48,10.8,1.4,1.74,Dropout_Enrolled
1,39,1,9853,1,1,140,1,Basic,Secondary,128.2,0,0,0,0,0,0,30,12.7,3.7,-1.7,Dropout_Enrolled
1,17,1,9773,1,1,128,1,Basic,Basic,125.6,1,0,0,1,1,0,19,8.9,1.4,3.51,Dropout_Enrolled
1,1,1,171,1,1,133.1,1,Basic,Basic,136,1,0,0,1,1,0,22,12.7,3.7,-1.7,Dropout_Enrolled
1,43,1,9556,1,1,128,1,Basic,Basic,123.5,1,0,0,1,0,0,22,12.7,3.7,-1.7,Dropout_Enrolled
1,17,1,9085,1,1,127,1,Basic,Basic,117.6,0,0,0,1,0,0,18,12.4,0.5,1.79,Dropout_Enrolled
1,39,1,9085,1,1,133.1,1,Higher,Basic,110,0,0,0,1,0,0,28,11.1,0.6,2.02,Dropout_Enrolled
1,39,1,9003,1,1,110,1,Secondary,Secondary,120,0,0,1,0,1,0,27,13.9,-0.3,0.79,Dropout_Enrolled
2,43,1,9003,1,1,149,1,Secondary,Secondary,156.1,1,0,0,0,1,0,29,15.5,2.8,-4.06,Dropout_Enrolled
1,44,1,9130,1,39,150,1,Basic,Basic,150,1,0,0,1,1,0,21,13.9,-0.3,0.79,Dropout_Enrolled
1,43,5,9853,1,1,150,1,Unknown,Unknown,150.2,1,0,0,0,0,0,28,9.4,-0.8,-3.12,Dropout_Enrolled
1,17,1,9556,1,1,140,1,Higher,Higher,131.6,1,0,0,1,1,0,19,11.1,0.6,2.02,Dropout_Enrolled
1,44,1,9003,1,39,120,1,Secondary,Basic,120,0,0,0,1,1,0,22,13.9,-0.3,0.79,Dropout_Enrolled
2,39,1,8014,0,19,133.1,1,Basic,Basic,151.5,0,0,1,0,1,0,45,16.2,0.3,-0.92,Dropout_Enrolled
1,17,1,9254,1,1,113,1,Secondary,Basic,117.2,1,0,0,1,0,0,20,7.6,2.6,0.32,Dropout_Enrolled
1,1,4,9500,1,1,144,1,Higher,Secondary,129,1,0,0,1,0,0,18,16.2,0.3,-0.92,Dropout_Enrolled
1,43,1,9556,1,1,147,1,Higher,Higher,100,0,0,0,1,0,0,18,10.8,1.4,1.74,Dropout_Enrolled
2,39,1,9085,1,1,133.1,1,Basic,Basic,128.2,0,0,0,0,0,1,28,9.4,-0.8,-3.12,Dropout_Enrolled
1,17,1,9853,1,1,120,1,Basic,Basic,122.6,0,0,0,1,0,0,20,12.7,3.7,-1.7,Dropout_Enrolled
1,43,1,9238,1,1,109,1,Basic,Basic,108.3,0,0,0,1,0,1,21,10.8,1.4,1.74,Dropout_Enrolled
1,43,1,9070,1,1,125,1,Basic,Basic,133.4,1,0,0,1,1,1,19,13.9,-0.3,0.79,Dropout_Enrolled
1,17,2,9500,1,1,122,1,Basic,Basic,131,1,0,0,1,0,0,18,7.6,2.6,0.32,Dropout_Enrolled
1,1,3,9500,1,1,125,1,Higher,Secondary,119.4,1,0,0,1,0,0,19,12.4,0.5,1.79,Dropout_Enrolled
1,17,1,171,1,1,136,1,Basic,Basic,127.3,1,0,0,1,0,0,19,15.5,2.8,-4.06,Dropout_Enrolled
1,39,1,9070,1,1,139.3,1,Basic,Basic,117.5,0,0,0,1,1,0,28,12.4,0.5,1.79,Dropout_Enrolled
1,39,1,9670,1,1,120,1,Unknown,Unknown,106,1,0,0,0,1,0,28,7.6,2.6,0.32,Dropout_Enrolled
1,43,1,9254,1,1,134,1,Basic,Basic,133.3,1,0,1,1,0,0,19,7.6,2.6,0.32,Dropout_Enrolled
1,17,1,171,1,1,130,1,Higher,Secondary,126.9,1,0,0,1,0,0,20,12.7,3.7,-1.7,Dropout_Enrolled
1,39,1,9119,1,3,130,1,Secondary,Basic,143.4,0,0,0,1,1,0,29,10.8,1.4,1.74,Dropout_Enrolled
1,39,1,9003,1,1,133.1,1,Basic,Basic,130,0,0,1,0,1,0,32,16.2,0.3,-0.92,Dropout_Enrolled
1,15,1,9119,1,1,133.1,41,Secondary,Higher,100,0,0,1,1,1,0,21,11.1,0.6,2.02,Dropout_Enrolled
1,17,2,9853,1,1,114,1,Secondary,Basic,111.9,1,0,0,1,1,1,20,7.6,2.6,0.32,Dropout_Enrolled
1,17,4,9147,1,1,135,1,Basic,Secondary,128.7,1,0,0,1,1,0,22,7.6,2.6,0.32,Dropout_Enrolled
1,1,1,9238,1,1,116,1,Basic,Basic,110.8,1,0,0,1,1,0,19,16.2,0.3,-0.92,Dropout_Enrolled
1,39,1,9991,0,1,110,1,Basic,Basic,134.3,0,0,0,1,1,0,24,10.8,1.4,1.74,Dropout_Enrolled
1,1,3,9070,1,1,125,1,Secondary,Basic,118,0,0,0,1,0,1,18,11.1,0.6,2.02,Dropout_Enrolled
2,39,1,9773,1,1,110,1,Basic,Basic,140,0,0,1,0,1,0,43,10.8,1.4,1.74,Dropout_Enrolled
2,39,1,9991,0,3,130,1,Higher,Secondary,160,0,0,0,1,0,0,30,12.7,3.7,-1.7,Dropout_Enrolled
1,44,1,9070,1,39,100,1,Secondary,Basic,104.8,0,0,1,0,0,0,22,12.4,0.5,1.79,Dropout_Enrolled
1,44,1,9085,1,39,140,1,Higher,Basic,140,1,0,0,1,0,0,21,12.4,0.5,1.79,Dropout_Enrolled
1,1,1,171,1,1,159,1,Higher,Higher,165.7,1,0,0,1,1,0,18,9.4,-0.8,-3.12,Dropout_Enrolled
1,44,1,9003,1,1,120,1,Secondary,Higher,120,0,0,0,1,1,0,19,16.2,0.3,-0.92,Dropout_Enrolled
1,18,3,9670,1,1,119,1,Basic,Basic,115.2,1,0,0,1,0,1,19,12.7,3.7,-1.7,Dropout_Enrolled
1,1,1,171,1,1,170,1,Basic,Basic,176.7,1,0,0,1,0,1,19,11.1,0.6,2.02,Dropout_Enrolled
1,1,1,9853,1,1,123,1,Secondary,Basic,121.6,1,0,0,1,0,0,18,11.1,0.6,2.02,Dropout_Enrolled
1,1,2,9238,1,1,147,1,Basic,Basic,135.8,1,0,0,1,0,1,19,13.9,-0.3,0.79,Dropout_Enrolled
2,39,1,9085,1,1,120,1,Basic,Basic,130,0,0,0,1,0,0,29,9.4,-0.8,-3.12,Dropout_Enrolled
1,1,5,9070,1,1,122,1,Basic,Basic,124.8,1,0,0,0,1,0,19,10.8,1.4,1.74,Dropout_Enrolled
1,39,1,9500,1,19,133.1,1,Secondary,Higher,100,0,0,1,1,1,0,24,16.2,0.3,-0.92,Dropout_Enrolled
1,17,1,9070,1,1,108,1,Basic,Secondary,111.9,0,0,0,1,0,0,19,8.9,1.4,3.51,Dropout_Enrolled
1,17,1,9254,1,1,150,1,Secondary,Secondary,142.7,0,0,1,1,0,0,18,7.6,2.6,0.32,Dropout_Enrolled
1,1,1,9130,1,1,133.1,1,Secondary,Secondary,138,1,0,0,1,0,0,20,16.2,0.3,-0.92,Dropout_Enrolled
1,1,1,9238,1,1,132,1,Basic,Basic,129.9,1,0,0,1,0,0,20,10.8,1.4,1.74,Dropout_Enrolled
1,39,1,9991,0,3,120,1,Basic,Secondary,134,0,0,0,1,0,0,25,16.2,0.3,-0.92,Dropout_Enrolled
1,17,1,9238,1,1,160,1,Basic,Basic,144.3,0,0,0,1,1,0,22,13.9,-0.3,0.79,Dropout_Enrolled
1,1,2,9670,1,1,122,1,Secondary,Secondary,116.1,1,0,0,1,1,1,18,9.4,-0.8,-3.12,Dropout_Enrolled
1,39,1,9500,1,1,130,1,Basic,Basic,129,0,0,1,0,0,0,26,12.4,0.5,1.79,Dropout_Enrolled
4,39,1,9670,1,1,140,1,Higher,Secondary,170,0,0,1,0,1,0,53,12.7,3.7,-1.7,Dropout_Enrolled
1,1,3,9500,1,1,140,6,Higher,Higher,124.3,1,0,0,1,0,0,19,12.4,0.5,1.79,Dropout_Enrolled
1,53,1,9991,0,1,140,1,Basic,Basic,135,0,0,1,1,0,0,23,8.9,1.4,3.51,Dropout_Enrolled
1,44,1,9085,1,39,130,6,Basic,Secondary,130,1,0,0,1,0,0,22,12.4,0.5,1.79,Dropout_Enrolled
1,1,3,9070,1,1,146,1,Unknown,Unknown,143.6,1,0,0,1,0,0,18,7.6,2.6,0.32,Dropout_Enrolled
2,7,1,9147,1,3,140,1,Basic,Basic,140,0,0,0,1,0,0,23,7.6,2.6,0.32,Dropout_Enrolled
1,1,1,9254,1,1,122,1,Basic,Basic,114.3,1,0,0,0,0,1,20,7.6,2.6,0.32,Dropout_Enrolled
1,1,1,9254,1,1,133.1,1,Higher,Basic,98,0,0,0,1,1,0,26,10.8,1.4,1.74,Dropout_Enrolled
1,7,1,9991,0,3,120,1,Basic,Basic,120,0,0,1,0,1,0,46,11.1,0.6,2.02,Dropout_Enrolled
1,39,1,9003,1,1,133.1,1,Basic,Basic,100,0,0,0,1,0,0,30,11.1,0.6,2.02,Dropout_Enrolled
1,7,1,9991,0,40,130,1,Secondary,Higher,130,0,0,0,1,1,0,27,8.9,1.4,3.51,Dropout_Enrolled
1,17,3,171,1,1,133,1,Secondary,Basic,126,1,0,0,1,1,1,19,10.8,1.4,1.74,Dropout_Enrolled
1,1,3,9254,1,1,129,1,Basic,Basic,122,1,0,0,1,0,1,18,7.6,2.6,0.32,Dropout_Enrolled
1,1,3,9500,1,1,139,1,Secondary,Secondary,130.8,1,0,0,0,0,0,18,9.4,-0.8,-3.12,Dropout_Enrolled
1,1,1,9130,1,1,132,1,Secondary,Secondary,143.9,1,0,0,1,1,0,20,9.4,-0.8,-3.12,Dropout_Enrolled
1,43,1,9500,1,1,136,1,Basic,Basic,118.4,1,0,0,1,0,0,21,13.9,-0.3,0.79,Dropout_Enrolled
1,43,1,171,1,1,116,1,Higher,Secondary,117.3,1,0,1,1,0,0,20,13.9,-0.3,0.79,Dropout_Enrolled
1,17,1,9254,1,1,122,1,Secondary,Secondary,112.9,1,0,0,1,0,0,22,7.6,2.6,0.32,Dropout_Enrolled
1,17,1,9119,1,1,132,1,Basic,Basic,119.4,1,0,0,1,1,0,21,7.6,2.6,0.32,Dropout_Enrolled
2,43,1,9773,1,1,160,1,Basic,Basic,160,0,0,1,0,1,0,51,12.7,3.7,-1.7,Dropout_Enrolled
1,39,1,8014,0,15,133.1,1,Unknown,Unknown,100,1,0,0,0,0,0,37,9.4,-0.8,-3.12,Dropout_Enrolled
1,1,1,9070,1,1,160,1,Higher,Basic,152,1,0,0,0,0,0,19,10.8,1.4,1.74,Dropout_Enrolled
1,39,1,9254,1,1,160,1,Basic,Basic,100,0,0,0,1,1,0,26,12.7,3.7,-1.7,Dropout_Enrolled
1,44,1,9003,1,39,140,1,Secondary,Basic,140,0,0,0,1,1,0,25,15.5,2.8,-4.06,Dropout_Enrolled
1,39,1,9130,1,10,133.1,1,Secondary,Basic,128.2,0,0,0,0,1,1,30,9.4,-0.8,-3.12,Dropout_Enrolled
1,44,1,9085,1,1,130,1,Secondary,Secondary,130,1,0,0,1,0,0,20,12.4,0.5,1.79,Dropout_Enrolled
1,7,1,9130,1,3,140,1,Basic,Basic,140,1,0,0,1,0,0,23,12.4,0.5,1.79,Dropout_Enrolled
1,17,2,9254,1,1,113,1,Secondary,Higher,106.7,1,0,1,1,1,1,19,13.9,-0.3,0.79,Dropout_Enrolled
1,1,3,9500,1,1,128,1,Secondary,Secondary,120.5,1,0,0,1,0,1,19,12.4,0.5,1.79,Dropout_Enrolled
1,17,1,9119,1,1,127,1,Basic,Secondary,115.8,0,0,0,1,1,0,20,13.9,-0.3,0.79,Dropout_Enrolled
1,17,2,9147,1,1,123,1,Secondary,Basic,115.3,1,0,0,1,0,1,18,8.9,1.4,3.51,Dropout_Enrolled
1,1,1,9670,1,1,123,1,Basic,Basic,113.9,1,0,1,0,0,0,18,10.8,1.4,1.74,Dropout_Enrolled
1,42,1,9500,1,1,100,1,Higher,Basic,153,0,0,0,1,1,0,22,15.5,2.8,-4.06,Dropout_Enrolled
1,18,1,9238,1,1,147,1,Basic,Unknown,130.2,0,0,0,1,0,0,18,10.8,1.4,1.74,Dropout_Enrolled
1,1,6,9254,1,1,119,1,Basic,Basic,118.7,1,0,0,1,1,0,20,10.8,1.4,1.74,Dropout_Enrolled
1,1,2,9147,1,1,121,1,Secondary,Basic,113.7,1,0,0,0,0,0,20,7.6,2.6,0.32,Dropout_Enrolled
1,43,4,171,1,1,136,1,Basic,Basic,123.8,1,0,0,1,1,0,19,7.6,2.6,0.32,Dropout_Enrolled
1,39,1,9991,0,1,110,1,Basic,Basic,150,0,0,0,0,0,0,48,15.5,2.8,-4.06,Dropout_Enrolled
1,17,3,9500,1,1,138,1,Higher,Higher,130,1,0,0,1,0,0,18,13.9,-0.3,0.79,Dropout_Enrolled
1,44,1,9070,1,39,100,1,Secondary,Secondary,106,0,0,0,1,1,0,21,12.4,0.5,1.79,Dropout_Enrolled
1,1,1,9130,1,1,126,1,Basic,Secondary,122.5,1,0,0,0,0,0,25,9.4,-0.8,-3.12,Dropout_Enrolled
1,1,2,9773,1,1,125,1,Basic,Secondary,122.2,1,0,0,1,0,0,18,11.1,0.6,2.02,Dropout_Enrolled
1,17,4,9254,1,1,124,1,Higher,Higher,126.1,1,0,0,1,0,0,20,10.8,1.4,1.74,Dropout_Enrolled
1,43,2,9500,1,1,136,1,Basic,Secondary,124.1,0,0,0,1,1,1,21,9.4,-0.8,-3.12,Dropout_Enrolled
1,1,1,171,1,1,130,1,Secondary,Basic,135.6,1,0,0,1,1,0,26,11.1,0.6,2.02,Dropout_Enrolled
1,7,1,9254,1,3,110,1,Basic,Basic,110,0,0,0,1,1,0,35,16.2,0.3,-0.92,Dropout_Enrolled
1,17,1,9670,1,1,138,1,Secondary,Secondary,123,0,0,1,0,1,0,20,13.9,-0.3,0.79,Dropout_Enrolled
1,43,1,9070,1,1,117,1,Secondary,Secondary,112.5,1,0,0,1,1,0,19,13.9,-0.3,0.79,Dropout_Enrolled
4,39,1,9991,0,1,133.1,1,Basic,Basic,130.4,0,0,0,1,0,0,30,12.7,3.7,-1.7,Dropout_Enrolled
1,51,1,9238,1,1,122,1,Basic,Higher,112.6,0,0,1,1,0,0,20,11.1,0.6,2.02,Dropout_Enrolled
1,51,1,9773,1,1,158,1,Secondary,Basic,117.1,1,0,0,1,1,0,20,8.9,1.4,3.51,Dropout_Enrolled
1,1,1,9500,1,1,125,1,Basic,Basic,118.3,0,0,0,1,1,0,20,10.8,1.4,1.74,Dropout_Enrolled
1,18,1,9147,1,1,119,1,Basic,Basic,112,1,0,0,0,1,0,20,9.4,-0.8,-3.12,Dropout_Enrolled
1,1,1,9130,1,1,132,1,Higher,Higher,119.1,1,0,1,1,0,0,29,10.8,1.4,1.74,Dropout_Enrolled
1,17,1,8014,0,1,119,1,Unknown,Unknown,112.4,1,0,0,1,0,0,26,7.6,2.6,0.32,Dropout_Enrolled
1,18,5,9500,1,1,137,1,Basic,Secondary,129.3,0,0,0,1,0,0,19,9.4,-0.8,-3.12,Dropout_Enrolled
1,1,1,9238,1,1,127,1,Secondary,Basic,141.7,1,0,0,1,1,0,22,10.8,1.4,1.74,Dropout_Enrolled
1,18,3,9773,1,1,128,1,Basic,Secondary,122.1,1,0,0,1,1,0,19,10.8,1.4,1.74,Dropout_Enrolled
1,39,1,9670,1,9,133.1,1,Basic,Basic,110,0,0,1,1,1,0,26,9.4,-0.8,-3.12,Dropout_Enrolled
1,1,1,171,1,1,137,1,Higher,Basic,122.3,0,0,0,1,0,0,19,10.8,1.4,1.74,Dropout_Enrolled
1,17,1,9147,1,1,139,1,Secondary,Basic,143.6,1,0,1,1,1,0,18,7.6,2.6,0.32,Dropout_Enrolled
1,1,1,9070,1,1,133.1,1,Secondary,Basic,143,1,0,1,1,0,0,21,12.7,3.7,-1.7,Dropout_Enrolled
1,39,1,9991,0,1,150,1,Basic,Basic,140.9,0,1,0,1,0,0,24,10.8,1.4,1.74,Dropout_Enrolled
1,1,1,9853,1,1,162,1,Basic,Basic,142.8,0,0,1,1,0,0,18,12.7,3.7,-1.7,Dropout_Enrolled
1,43,1,9147,1,1,133.1,1,Higher,Basic,128.2,0,0,0,1,0,0,23,9.4,-0.8,-3.12,Dropout_Enrolled
1,39,1,9119,1,1,120,1,Basic,Basic,100,0,0,1,1,1,0,24,16.2,0.3,-0.92,Dropout_Enrolled
1,17,2,9085,1,1,123,1,Higher,Basic,118.9,0,0,0,1,1,0,18,7.6,2.6,0.32,Dropout_Enrolled
1,17,1,9238,1,1,128,1,Basic,Basic,118.6,1,0,0,1,0,1,21,8.9,1.4,3.51,Dropout_Enrolled
1,1,1,9670,1,1,119,1,Basic,Basic,119.7,1,0,0,1,0,0,20,7.6,2.6,0.32,Dropout_Enrolled
1,1,3,9500,1,1,136,1,Secondary,Basic,131.1,1,0,0,1,0,0,19,15.5,2.8,-4.06,Dropout_Enrolled
2,7,1,9500,1,3,130,1,Basic,Basic,130,0,0,0,1,0,0,32,15.5,2.8,-4.06,Dropout_Enrolled
1,44,1,9085,1,39,150,1,Basic,Secondary,150,0,0,0,1,0,0,20,12.7,3.7,-1.7,Dropout_Enrolled
1,1,1,171,1,1,131,1,Basic,Basic,132.8,1,0,0,1,0,0,18,7.6,2.6,0.32,Dropout_Enrolled
2,42,1,9254,1,1,136,1,Higher,Higher,130,1,0,0,1,1,0,22,7.6,2.6,0.32,Dropout_Enrolled
1,1,1,171,1,1,140,1,Basic,Basic,137.9,1,0,1,0,0,0,18,8.9,1.4,3.51,Dropout_Enrolled
1,39,1,9991,0,19,133.1,1,Basic,Basic,149.4,0,0,0,0,1,0,29,11.1,0.6,2.02,Dropout_Enrolled
2,39,1,9991,0,1,110,1,Basic,Basic,120,1,0,0,1,0,0,38,9.4,-0.8,-3.12,Dropout_Enrolled
1,7,1,171,1,3,130,1,Secondary,Higher,130,0,0,0,0,1,0,18,9.4,-0.8,-3.12,Dropout_Enrolled
1,18,3,9070,1,1,134,1,Secondary,Secondary,121.4,0,0,0,1,0,0,18,9.4,-0.8,-3.12,Dropout_Enrolled
1,53,1,9085,1,42,140,1,Secondary,Secondary,143.3,1,0,0,0,0,0,23,8.9,1.4,3.51,Dropout_Enrolled
1,1,1,9500,1,1,142,1,Secondary,Basic,127,0,0,1,0,1,0,21,12.4,0.5,1.79,Dropout_Enrolled
2,43,1,9991,0,1,114,1,Basic,Basic,116.7,0,0,0,1,1,0,49,16.2,0.3,-0.92,Dropout_Enrolled
1,1,1,9670,1,1,136,1,Higher,Basic,129.7,1,0,0,1,1,0,19,16.2,0.3,-0.92,Dropout_Enrolled
1,44,1,9085,1,39,160,1,Secondary,Secondary,160,1,0,0,1,0,0,23,12.4,0.5,1.79,Dropout_Enrolled
1,44,1,9991,0,39,140,1,Basic,Basic,140,0,0,0,1,0,1,26,9.4,-0.8,-3.12,Dropout_Enrolled
1,1,3,9853,1,1,122,1,Higher,Higher,112.6,1,0,0,1,0,0,23,7.6,2.6,0.32,Dropout_Enrolled
1,1,1,9147,1,1,117,1,Basic,Basic,120.2,1,0,0,1,0,0,20,7.6,2.6,0.32,Dropout_Enrolled
1,39,1,9119,1,1,100,1,Basic,Basic,160,0,0,1,0,1,0,45,15.5,2.8,-4.06,Dropout_Enrolled
1,17,5,9119,1,1,130,1,Basic,Secondary,118.1,1,0,1,0,1,0,26,8.9,1.4,3.51,Dropout_Enrolled
1,39,1,9147,1,1,120,1,Basic,Basic,110,0,0,0,0,1,0,32,9.4,-0.8,-3.12,Dropout_Enrolled
1,39,2,9147,1,12,133.1,1,Basic,Basic,120,1,0,1,0,1,0,28,9.4,-0.8,-3.12,Dropout_Enrolled
1,15,1,9119,1,1,130,26,Basic,Higher,137,1,0,0,1,1,0,19,13.9,-0.3,0.79,Dropout_Enrolled
1,1,6,9147,1,1,142,1,Basic,Basic,134.3,0,1,0,1,1,0,21,10.8,1.4,1.74,Dropout_Enrolled
1,43,1,171,1,1,145,1,Basic,Basic,100,0,0,0,1,0,1,18,13.9,-0.3,0.79,Dropout_Enrolled
1,7,1,9119,1,3,130,1,Unknown,Unknown,130,0,0,0,1,1,0,26,10.8,1.4,1.74,Dropout_Enrolled
1,44,1,9853,1,39,150,1,Higher,Basic,150,0,0,0,1,0,0,19,12.4,0.5,1.79,Dropout_Enrolled
2,39,2,9147,1,1,120,1,Basic,Basic,104.7,1,0,0,1,1,0,36,10.8,1.4,1.74,Dropout_Enrolled
1,18,1,9119,1,1,122,1,Basic,Secondary,116.1,1,0,1,0,1,0,24,9.4,-0.8,-3.12,Dropout_Enrolled
1,43,1,171,1,2,140,1,Basic,Basic,140,1,0,0,1,0,0,34,10.8,1.4,1.74,Dropout_Enrolled
1,17,3,9147,1,1,112,1,Secondary,Basic,107.8,1,0,0,1,0,0,19,10.8,1.4,1.74,Dropout_Enrolled
1,39,1,171,1,1,116,1,Unknown,Unknown,127,1,0,0,1,1,0,38,7.6,2.6,0.32,Dropout_Enrolled
1,17,1,9147,1,1,120,1,Basic,Basic,113.4,0,0,0,1,0,0,20,12.4,0.5,1.79,Dropout_Enrolled
1,1,1,9147,1,1,133.1,1,Basic,Basic,119,1,0,0,0,0,1,19,10.8,1.4,1.74,Dropout_Enrolled
1,17,3,9853,1,1,138,1,Basic,Basic,125.1,1,1,0,1,0,1,19,12.7,3.7,-1.7,Dropout_Enrolled
1,17,1,9147,1,1,120,1,Higher,Basic,124.2,1,0,0,1,1,0,18,13.9,-0.3,0.79,Dropout_Enrolled
2,39,1,9991,0,1,160,1,Secondary,Higher,130,0,0,0,0,1,1,26,9.4,-0.8,-3.12,Dropout_Enrolled
1,7,1,9119,1,3,130,1,Basic,Basic,130,0,0,0,0,1,0,33,12.7,3.7,-1.7,Dropout_Enrolled
1,1,1,9085,1,1,147,1,Basic,Basic,133.7,1,0,0,1,0,1,19,10.8,1.4,1.74,Dropout_Enrolled
1,44,1,9119,1,39,130,1,Basic,Basic,130,1,0,0,1,1,0,19,12.4,0.5,1.79,Dropout_Enrolled
1,1,2,9147,1,1,122,1,Secondary,Basic,116.4,0,0,0,1,1,0,21,15.5,2.8,-4.06,Dropout_Enrolled
1,1,1,9238,1,1,133.1,1,Basic,Secondary,101,0,0,0,1,0,0,21,15.5,2.8,-4.06,Dropout_Enrolled
1,39,1,9500,1,19,133.1,1,Secondary,Basic,111.8,1,0,0,1,0,0,27,11.1,0.6,2.02,Dropout_Enrolled
1,7,1,9500,1,3,140,1,Secondary,Secondary,140,0,0,0,1,0,0,33,16.2,0.3,-0.92,Dropout_Enrolled
1,17,2,9254,1,1,129,1,Secondary,Basic,122,1,0,0,1,0,0,18,10.8,1.4,1.74,Dropout_Enrolled
1,39,1,9085,1,1,133.1,1,Secondary,Basic,162.3,1,0,0,1,0,0,24,8.9,1.4,3.51,Dropout_Enrolled
1,17,1,171,1,1,132,1,Secondary,Basic,127.1,0,0,0,0,1,0,21,7.6,2.6,0.32,Dropout_Enrolled
1,1,3,9070,1,1,110,1,Basic,Basic,107.6,1,0,0,1,1,1,22,7.6,2.6,0.32,Dropout_Enrolled
1,44,1,9003,1,39,130,1,Secondary,Higher,130,1,0,1,0,1,0,23,13.9,-0.3,0.79,Dropout_Enrolled
1,1,1,9773,1,1,124,17,Secondary,Secondary,118.1,1,0,1,0,0,0,19,16.2,0.3,-0.92,Dropout_Enrolled
2,53,1,9147,1,42,130,1,Basic,Basic,132.4,0,0,0,1,0,0,30,8.9,1.4,3.51,Dropout_Enrolled
1,44,1,9130,1,39,120,6,Higher,Higher,120,0,0,1,0,0,0,20,12.4,0.5,1.79,Dropout_Enrolled
1,1,2,9147,1,1,116,1,Basic,Secondary,124.8,1,0,0,1,1,0,20,7.6,2.6,0.32,Dropout_Enrolled
1,1,2,9147,1,1,125,1,Secondary,Basic,115.2,0,1,0,1,0,0,21,15.5,2.8,-4.06,Dropout_Enrolled
1,1,1,9500,1,1,118,1,Secondary,Secondary,115.7,0,0,0,1,1,0,20,13.9,-0.3,0.79,Dropout_Enrolled
1,18,3,9853,1,1,122,1,Basic,Basic,120.3,1,0,0,1,0,0,19,10.8,1.4,1.74,Dropout_Enrolled
1,1,1,9254,1,1,117,1,Basic,Basic,116.3,1,0,0,1,0,0,24,12.7,3.7,-1.7,Dropout_Enrolled
1,39,1,9556,1,1,120,1,Basic,Basic,122.8,0,0,0,1,0,0,26,13.9,-0.3,0.79,Dropout_Enrolled
1,17,1,8014,0,1,127,1,Basic,Basic,115.8,0,0,0,1,0,0,24,10.8,1.4,1.74,Dropout_Enrolled
1,18,1,9500,1,1,128,1,Basic,Secondary,125.8,0,0,0,1,0,1,20,9.4,-0.8,-3.12,Dropout_Enrolled
1,1,1,9853,1,1,160,1,Secondary,Basic,146,1,0,0,1,0,0,19,9.4,-0.8,-3.12,Dropout_Enrolled
2,39,1,9147,1,19,133.1,1,Basic,Basic,128,0,0,0,1,1,0,49,8.9,1.4,3.51,Dropout_Enrolled
1,1,3,9500,1,1,154,1,Higher,Higher,129,1,0,0,1,0,0,18,9.4,-0.8,-3.12,Dropout_Enrolled
1,1,1,9670,1,1,124,1,Higher,Higher,124.7,1,0,0,1,1,0,21,7.6,2.6,0.32,Dropout_Enrolled
1,44,1,9130,1,39,130,1,Basic,Basic,130,1,0,0,1,0,1,20,16.2,0.3,-0.92,Dropout_Enrolled
1,1,1,9085,1,1,133.1,1,Higher,Secondary,105,1,0,0,1,1,0,21,12.4,0.5,1.79,Dropout_Enrolled
1,17,1,9238,1,1,135,1,Basic,Basic,127,0,0,0,1,0,0,21,16.2,0.3,-0.92,Dropout_Enrolled
1,43,1,9254,1,6,138.6,1,Unknown,Unknown,138.6,1,0,0,1,1,0,20,7.6,2.6,0.32,Dropout_Enrolled
1,39,1,9147,1,1,110,1,Basic,Basic,110.3,0,0,1,0,1,0,26,10.8,1.4,1.74,Dropout_Enrolled
1,44,1,9119,1,39,160,1,Higher,Basic,160,0,0,1,0,1,0,24,8.9,1.4,3.51,Dropout_Enrolled
1,51,1,9670,1,1,136,1,Basic,Basic,122,0,0,1,0,0,0,18,9.4,-0.8,-3.12,Dropout_Enrolled
1,44,1,9003,1,39,150,1,Basic,Secondary,150,0,0,0,1,1,0,22,15.5,2.8,-4.06,Dropout_Enrolled
1,17,6,9773,1,1,126,1,Secondary,Basic,119,1,0,0,1,0,0,18,12.4,0.5,1.79,Dropout_Enrolled
1,1,1,9670,1,1,131,1,Basic,Basic,123,1,0,0,1,0,1,18,7.6,2.6,0.32,Dropout_Enrolled
1,39,1,8014,0,19,133.1,1,Basic,Basic,135.5,0,0,0,1,0,0,58,11.1,0.6,2.02,Dropout_Enrolled
1,39,1,9991,0,1,133.1,1,Basic,Basic,111.4,0,0,0,1,1,0,27,13.9,-0.3,0.79,Dropout_Enrolled
1,17,2,9254,1,1,130,1,Basic,Basic,123.4,1,0,0,1,1,0,30,7.6,2.6,0.32,Dropout_Enrolled
1,39,1,9773,1,19,133.1,1,Basic,Basic,104,0,0,1,0,0,0,27,11.1,0.6,2.02,Dropout_Enrolled
1,44,1,9003,1,39,130,1,Basic,Basic,130,0,0,1,0,0,0,29,13.9,-0.3,0.79,Dropout_Enrolled
1,7,1,9070,1,3,140,1,Basic,Higher,140,0,0,0,0,0,0,23,10.8,1.4,1.74,Dropout_Enrolled
1,1,1,9085,1,1,129,1,Secondary,Higher,125.9,1,0,0,1,0,0,19,9.4,-0.8,-3.12,Dropout_Enrolled
1,1,1,9238,1,1,122,1,Basic,Basic,112.6,0,0,0,1,0,0,19,12.4,0.5,1.79,Dropout_Enrolled
1,17,2,9853,1,1,150,1,Basic,Basic,142,1,0,0,1,0,1,19,10.8,1.4,1.74,Dropout_Enrolled
1,1,1,9147,1,1,122,1,Secondary,Basic,120.3,1,0,0,1,1,1,19,8.9,1.4,3.51,Dropout_Enrolled
1,43,1,9773,1,1,119,1,Basic,Basic,105,1,0,0,1,0,0,23,16.2,0.3,-0.92,Dropout_Enrolled
1,39,1,9670,1,6,133.1,1,Secondary,Secondary,107,1,0,0,1,1,0,30,7.6,2.6,0.32,Dropout_Enrolled
1,1,3,9773,1,1,149,1,Secondary,Higher,148.7,0,0,0,0,1,0,20,10.8,1.4,1.74,Dropout_Enrolled
1,39,1,9991,0,12,133.1,1,Basic,Basic,121.5,0,0,0,1,1,0,38,7.6,2.6,0.32,Dropout_Enrolled
1,17,1,9147,1,1,115,1,Basic,Basic,115,1,0,0,1,0,0,23,9.4,-0.8,-3.12,Dropout_Enrolled
1,44,1,9085,1,39,140,1,Basic,Basic,140,0,0,0,1,0,0,20,13.9,-0.3,0.79,Dropout_Enrolled
4,39,1,9003,1,1,133.1,1,Basic,Basic,100.7,0,0,0,1,0,0,39,15.5,2.8,-4.06,Dropout_Enrolled
1,1,1,9085,1,1,132,1,Secondary,Secondary,124.3,0,0,0,1,0,0,20,13.9,-0.3,0.79,Dropout_Enrolled
1,1,1,9119,1,1,148,1,Basic,Basic,133,0,0,0,1,1,0,18,12.4,0.5,1.79,Dropout_Enrolled
1,1,1,9085,1,1,140,6,Secondary,Basic,131.6,1,0,0,1,0,0,20,12.4,0.5,1.79,Dropout_Enrolled
1,17,2,9670,1,1,123,1,Unknown,Basic,114.6,1,0,1,0,0,0,18,7.6,2.6,0.32,Dropout_Enrolled
1,17,6,9147,1,1,133,1,Basic,Basic,123.2,1,0,0,1,1,0,20,9.4,-0.8,-3.12,Dropout_Enrolled
4,7,1,9147,1,3,130,1,Basic,Secondary,130,0,0,0,1,0,0,35,11.1,0.6,2.02,Dropout_Enrolled
1,1,6,9853,1,1,140,1,Basic,Basic,137.6,1,0,0,1,0,0,18,10.8,1.4,1.74,Dropout_Enrolled
1,1,1,9254,1,1,124,1,Basic,Basic,114.6,1,0,0,1,1,0,19,7.6,2.6,0.32,Dropout_Enrolled
2,42,1,9556,1,1,110,1,Basic,Basic,140,0,0,0,1,1,0,43,16.2,0.3,-0.92,Dropout_Enrolled
1,7,1,9003,1,3,130,1,Secondary,Basic,130,0,0,0,1,1,0,27,16.2,0.3,-0.92,Dropout_Enrolled
1,43,1,9070,1,1,150,1,Higher,Higher,140.8,0,0,0,1,0,0,19,10.8,1.4,1.74,Dropout_Enrolled
1,39,1,9500,1,4,150,1,Higher,Basic,127,1,0,0,1,1,0,26,11.1,0.6,2.02,Dropout_Enrolled
1,1,1,9670,1,1,126,1,Basic,Basic,125.7,0,0,0,1,0,0,20,15.5,2.8,-4.06,Dropout_Enrolled
2,42,1,9003,1,1,120,1,Higher,Secondary,113.3,0,0,0,1,1,0,26,12.4,0.5,1.79,Dropout_Enrolled
1,17,6,9556,1,1,122,1,Secondary,Secondary,117.1,1,0,0,1,0,0,19,13.9,-0.3,0.79,Dropout_Enrolled
1,43,1,33,1,1,134,1,Basic,Basic,100,1,0,0,1,1,0,32,13.9,-0.3,0.79,Dropout_Enrolled
2,43,1,9991,0,1,130,1,Basic,Basic,103.8,0,0,0,1,0,0,28,9.4,-0.8,-3.12,Dropout_Enrolled
1,39,1,9670,1,9,133.1,1,Higher,Secondary,120,0,0,1,0,1,0,26,9.4,-0.8,-3.12,Dropout_Enrolled
1,1,1,9238,1,1,170,1,Basic,Basic,150.8,1,0,0,1,0,0,27,7.6,2.6,0.32,Dropout_Enrolled
1,39,1,9991,0,1,133.1,1,Basic,Basic,109.7,0,0,0,1,0,0,29,16.2,0.3,-0.92,Dropout_Enrolled
1,1,3,171,1,1,129,1,Basic,Basic,127.3,1,0,1,0,1,1,19,9.4,-0.8,-3.12,Dropout_Enrolled
1,1,1,9070,1,1,132,1,Secondary,Secondary,136.6,1,0,0,1,1,0,19,7.6,2.6,0.32,Dropout_Enrolled
1,1,1,9070,1,1,124,1,Basic,Basic,132.1,1,0,0,1,0,0,19,7.6,2.6,0.32,Dropout_Enrolled
1,1,2,9773,1,1,133.1,1,Basic,Basic,98,1,0,0,1,1,1,19,15.5,2.8,-4.06,Dropout_Enrolled
1,44,1,9003,1,39,150,1,Secondary,Basic,150,1,0,0,1,1,0,21,16.2,0.3,-0.92,Dropout_Enrolled
1,39,2,9147,1,19,133.1,1,Basic,Basic,116.3,0,0,0,0,1,0,32,10.8,1.4,1.74,Dropout_Enrolled
1,42,1,9119,1,1,120,1,Secondary,Secondary,108.6,0,0,0,0,1,0,34,15.5,2.8,-4.06,Dropout_Enrolled
1,17,2,9119,1,1,137,1,Secondary,Secondary,130.4,1,0,1,1,1,0,18,7.6,2.6,0.32,Dropout_Enrolled
1,43,1,9556,1,1,126,1,Higher,Higher,100,0,0,0,1,0,0,25,10.8,1.4,1.74,Dropout_Enrolled
1,1,5,9119,1,1,132,1,Basic,Basic,119.1,0,0,0,1,0,0,18,9.4,-0.8,-3.12,Dropout_Enrolled
1,1,1,9670,1,1,132,1,Higher,Higher,143.6,1,0,0,1,1,0,20,13.9,-0.3,0.79,Dropout_Enrolled
1,1,1,9500,1,1,124,1,Secondary,Basic,116.7,1,0,0,1,0,1,18,15.5,2.8,-4.06,Dropout_Enrolled
1,39,1,9085,1,1,140,1,Basic,Basic,129.3,1,0,1,1,0,0,28,8.9,1.4,3.51,Dropout_Enrolled
2,39,1,171,1,19,100,1,Basic,Basic,139,0,0,0,1,1,0,36,10.8,1.4,1.74,Dropout_Enrolled
